*HEADING
NAFEMS LE10 thick plate pressure (quarter, C3D20)
Target: syy(D) = -5.38 MPa at the inner top point on +x
** mesh 6 hoop x 4 radial x 2 thick, node D = 5
*NODE
1, 2000, 0, 0
2, 2000, 0, 150
3, 2000, 0, 300
4, 2000, 0, 450
5, 2000, 0, 600
6, 1982.8897, 130.52619, 0
7, 1982.8897, 130.52619, 300
8, 1982.8897, 130.52619, 600
9, 1931.8517, 258.81905, 0
10, 1931.8517, 258.81905, 150
11, 1931.8517, 258.81905, 300
12, 1931.8517, 258.81905, 450
13, 1931.8517, 258.81905, 600
14, 1847.7591, 382.68343, 0
15, 1847.7591, 382.68343, 300
16, 1847.7591, 382.68343, 600
17, 1732.0508, 500, 0
18, 1732.0508, 500, 150
19, 1732.0508, 500, 300
20, 1732.0508, 500, 450
21, 1732.0508, 500, 600
22, 1586.7067, 608.76143, 0
23, 1586.7067, 608.76143, 300
24, 1586.7067, 608.76143, 600
25, 1414.2136, 707.10678, 0
26, 1414.2136, 707.10678, 150
27, 1414.2136, 707.10678, 300
28, 1414.2136, 707.10678, 450
29, 1414.2136, 707.10678, 600
30, 1217.5229, 793.35334, 0
31, 1217.5229, 793.35334, 300
32, 1217.5229, 793.35334, 600
33, 1000, 866.0254, 0
34, 1000, 866.0254, 150
35, 1000, 866.0254, 300
36, 1000, 866.0254, 450
37, 1000, 866.0254, 600
38, 765.36686, 923.87953, 0
39, 765.36686, 923.87953, 300
40, 765.36686, 923.87953, 600
41, 517.63809, 965.92583, 0
42, 517.63809, 965.92583, 150
43, 517.63809, 965.92583, 300
44, 517.63809, 965.92583, 450
45, 517.63809, 965.92583, 600
46, 261.05238, 991.44486, 0
47, 261.05238, 991.44486, 300
48, 261.05238, 991.44486, 600
49, 1.2246468e-13, 1000, 0
50, 1.2246468e-13, 1000, 150
51, 1.2246468e-13, 1000, 300
52, 1.2246468e-13, 1000, 450
53, 1.2246468e-13, 1000, 600
54, 2156.25, 0, 0
55, 2156.25, 0, 300
56, 2156.25, 0, 600
57, 2082.7776, 315.43571, 0
58, 2082.7776, 315.43571, 300
59, 2082.7776, 315.43571, 600
60, 1867.3673, 609.375, 0
61, 1867.3673, 609.375, 300
62, 1867.3673, 609.375, 600
63, 1524.699, 861.78639, 0
64, 1524.699, 861.78639, 300
65, 1524.699, 861.78639, 600
66, 1078.125, 1055.4685, 0
67, 1078.125, 1055.4685, 300
68, 1078.125, 1055.4685, 600
69, 558.07857, 1177.2221, 0
70, 558.07857, 1177.2221, 300
71, 558.07857, 1177.2221, 600
72, 1.3203223e-13, 1218.75, 0
73, 1.3203223e-13, 1218.75, 300
74, 1.3203223e-13, 1218.75, 600
75, 2312.5, 0, 0
76, 2312.5, 0, 150
77, 2312.5, 0, 300
78, 2312.5, 0, 450
79, 2312.5, 0, 600
80, 2292.7162, 187.6314, 0
81, 2292.7162, 187.6314, 300
82, 2292.7162, 187.6314, 600
83, 2233.7035, 372.05238, 0
84, 2233.7035, 372.05238, 150
85, 2233.7035, 372.05238, 300
86, 2233.7035, 372.05238, 450
87, 2233.7035, 372.05238, 600
88, 2136.4714, 550.10743, 0
89, 2136.4714, 550.10743, 300
90, 2136.4714, 550.10743, 600
91, 2002.6837, 718.75, 0
92, 2002.6837, 718.75, 150
93, 2002.6837, 718.75, 300
94, 2002.6837, 718.75, 450
95, 2002.6837, 718.75, 600
96, 1834.6296, 875.09455, 0
97, 1834.6296, 875.09455, 300
98, 1834.6296, 875.09455, 600
99, 1635.1844, 1016.466, 0
100, 1635.1844, 1016.466, 150
101, 1635.1844, 1016.466, 300
102, 1635.1844, 1016.466, 450
103, 1635.1844, 1016.466, 600
104, 1407.7608, 1140.4454, 0
105, 1407.7608, 1140.4454, 300
106, 1407.7608, 1140.4454, 600
107, 1156.25, 1244.9115, 0
108, 1156.25, 1244.9115, 150
109, 1156.25, 1244.9115, 300
110, 1156.25, 1244.9115, 450
111, 1156.25, 1244.9115, 600
112, 884.95544, 1328.0768, 0
113, 884.95544, 1328.0768, 300
114, 884.95544, 1328.0768, 600
115, 598.51904, 1388.5184, 0
116, 598.51904, 1388.5184, 150
117, 598.51904, 1388.5184, 300
118, 598.51904, 1388.5184, 450
119, 598.51904, 1388.5184, 600
120, 301.84182, 1425.202, 0
121, 301.84182, 1425.202, 300
122, 301.84182, 1425.202, 600
123, 1.4159979e-13, 1437.5, 0
124, 1.4159979e-13, 1437.5, 150
125, 1.4159979e-13, 1437.5, 300
126, 1.4159979e-13, 1437.5, 450
127, 1.4159979e-13, 1437.5, 600
128, 2468.75, 0, 0
129, 2468.75, 0, 300
130, 2468.75, 0, 600
131, 2384.6294, 428.66904, 0
132, 2384.6294, 428.66904, 300
133, 2384.6294, 428.66904, 600
134, 2138.0002, 828.125, 0
135, 2138.0002, 828.125, 300
136, 2138.0002, 828.125, 600
137, 1745.6699, 1171.1456, 0
138, 1745.6699, 1171.1456, 300
139, 1745.6699, 1171.1456, 600
140, 1234.375, 1434.3546, 0
141, 1234.375, 1434.3546, 300
142, 1234.375, 1434.3546, 600
143, 638.95952, 1599.8146, 0
144, 638.95952, 1599.8146, 300
145, 638.95952, 1599.8146, 600
146, 1.5116734e-13, 1656.25, 0
147, 1.5116734e-13, 1656.25, 300
148, 1.5116734e-13, 1656.25, 600
149, 2625, 0, 0
150, 2625, 0, 150
151, 2625, 0, 300
152, 2625, 0, 450
153, 2625, 0, 600
154, 2602.5428, 244.73661, 0
155, 2602.5428, 244.73661, 300
156, 2602.5428, 244.73661, 600
157, 2535.5553, 485.28571, 0
158, 2535.5553, 485.28571, 150
159, 2535.5553, 485.28571, 300
160, 2535.5553, 485.28571, 450
161, 2535.5553, 485.28571, 600
162, 2425.1838, 717.53144, 0
163, 2425.1838, 717.53144, 300
164, 2425.1838, 717.53144, 600
165, 2273.3167, 937.5, 0
166, 2273.3167, 937.5, 150
167, 2273.3167, 937.5, 300
168, 2273.3167, 937.5, 450
169, 2273.3167, 937.5, 600
170, 2082.5525, 1141.4277, 0
171, 2082.5525, 1141.4277, 300
172, 2082.5525, 1141.4277, 600
173, 1856.1553, 1325.8252, 0
174, 1856.1553, 1325.8252, 150
175, 1856.1553, 1325.8252, 300
176, 1856.1553, 1325.8252, 450
177, 1856.1553, 1325.8252, 600
178, 1597.9988, 1487.5375, 0
179, 1597.9988, 1487.5375, 300
180, 1597.9988, 1487.5375, 600
181, 1312.5, 1623.7976, 0
182, 1312.5, 1623.7976, 150
183, 1312.5, 1623.7976, 300
184, 1312.5, 1623.7976, 450
185, 1312.5, 1623.7976, 600
186, 1004.544, 1732.2741, 0
187, 1004.544, 1732.2741, 300
188, 1004.544, 1732.2741, 600
189, 679.39999, 1811.1109, 0
190, 679.39999, 1811.1109, 150
191, 679.39999, 1811.1109, 300
192, 679.39999, 1811.1109, 450
193, 679.39999, 1811.1109, 600
194, 342.63125, 1858.9591, 0
195, 342.63125, 1858.9591, 300
196, 342.63125, 1858.9591, 600
197, 1.6073489e-13, 1875, 0
198, 1.6073489e-13, 1875, 150
199, 1.6073489e-13, 1875, 300
200, 1.6073489e-13, 1875, 450
201, 1.6073489e-13, 1875, 600
202, 2781.25, 0, 0
203, 2781.25, 0, 300
204, 2781.25, 0, 600
205, 2686.4812, 541.90238, 0
206, 2686.4812, 541.90238, 300
207, 2686.4812, 541.90238, 600
208, 2408.6332, 1046.875, 0
209, 2408.6332, 1046.875, 300
210, 2408.6332, 1046.875, 600
211, 1966.6407, 1480.5048, 0
212, 1966.6407, 1480.5048, 300
213, 1966.6407, 1480.5048, 600
214, 1390.625, 1813.2407, 0
215, 1390.625, 1813.2407, 300
216, 1390.625, 1813.2407, 600
217, 719.84047, 2022.4072, 0
218, 719.84047, 2022.4072, 300
219, 719.84047, 2022.4072, 600
220, 1.7030245e-13, 2093.75, 0
221, 1.7030245e-13, 2093.75, 300
222, 1.7030245e-13, 2093.75, 600
223, 2937.5, 0, 0
224, 2937.5, 0, 150
225, 2937.5, 0, 300
226, 2937.5, 0, 450
227, 2937.5, 0, 600
228, 2912.3693, 301.84182, 0
229, 2912.3693, 301.84182, 300
230, 2912.3693, 301.84182, 600
231, 2837.4071, 598.51904, 0
232, 2837.4071, 598.51904, 150
233, 2837.4071, 598.51904, 300
234, 2837.4071, 598.51904, 450
235, 2837.4071, 598.51904, 600
236, 2713.8961, 884.95544, 0
237, 2713.8961, 884.95544, 300
238, 2713.8961, 884.95544, 600
239, 2543.9496, 1156.25, 0
240, 2543.9496, 1156.25, 150
241, 2543.9496, 1156.25, 300
242, 2543.9496, 1156.25, 450
243, 2543.9496, 1156.25, 600
244, 2330.4754, 1407.7608, 0
245, 2330.4754, 1407.7608, 300
246, 2330.4754, 1407.7608, 600
247, 2077.1262, 1635.1844, 0
248, 2077.1262, 1635.1844, 150
249, 2077.1262, 1635.1844, 300
250, 2077.1262, 1635.1844, 450
251, 2077.1262, 1635.1844, 600
252, 1788.2367, 1834.6296, 0
253, 1788.2367, 1834.6296, 300
254, 1788.2367, 1834.6296, 600
255, 1468.75, 2002.6837, 0
256, 1468.75, 2002.6837, 150
257, 1468.75, 2002.6837, 300
258, 1468.75, 2002.6837, 450
259, 1468.75, 2002.6837, 600
260, 1124.1326, 2136.4714, 0
261, 1124.1326, 2136.4714, 300
262, 1124.1326, 2136.4714, 600
263, 760.28094, 2233.7035, 0
264, 760.28094, 2233.7035, 150
265, 760.28094, 2233.7035, 300
266, 760.28094, 2233.7035, 450
267, 760.28094, 2233.7035, 600
268, 383.42069, 2292.7162, 0
269, 383.42069, 2292.7162, 300
270, 383.42069, 2292.7162, 600
271, 1.7987e-13, 2312.5, 0
272, 1.7987e-13, 2312.5, 150
273, 1.7987e-13, 2312.5, 300
274, 1.7987e-13, 2312.5, 450
275, 1.7987e-13, 2312.5, 600
276, 3093.75, 0, 0
277, 3093.75, 0, 300
278, 3093.75, 0, 600
279, 2988.333, 655.13571, 0
280, 2988.333, 655.13571, 300
281, 2988.333, 655.13571, 600
282, 2679.2661, 1265.625, 0
283, 2679.2661, 1265.625, 300
284, 2679.2661, 1265.625, 600
285, 2187.6116, 1789.864, 0
286, 2187.6116, 1789.864, 300
287, 2187.6116, 1789.864, 600
288, 1546.875, 2192.1268, 0
289, 1546.875, 2192.1268, 300
290, 1546.875, 2192.1268, 600
291, 800.72142, 2444.9997, 0
292, 800.72142, 2444.9997, 300
293, 800.72142, 2444.9997, 600
294, 1.8943755e-13, 2531.25, 0
295, 1.8943755e-13, 2531.25, 300
296, 1.8943755e-13, 2531.25, 600
297, 3250, 0, 0
298, 3250, 0, 150
299, 3250, 0, 300
300, 3250, 0, 450
301, 3250, 0, 600
302, 3222.1958, 358.94703, 0
303, 3222.1958, 358.94703, 300
304, 3222.1958, 358.94703, 600
305, 3139.2589, 711.75237, 0
306, 3139.2589, 711.75237, 150
307, 3139.2589, 711.75237, 300
308, 3139.2589, 711.75237, 450
309, 3139.2589, 711.75237, 600
310, 3002.6085, 1052.3794, 0
311, 3002.6085, 1052.3794, 300
312, 3002.6085, 1052.3794, 600
313, 2814.5826, 1375, 0
314, 2814.5826, 1375, 150
315, 2814.5826, 1375, 300
316, 2814.5826, 1375, 450
317, 2814.5826, 1375, 600
318, 2578.3984, 1674.0939, 0
319, 2578.3984, 1674.0939, 300
320, 2578.3984, 1674.0939, 600
321, 2298.097, 1944.5436, 0
322, 2298.097, 1944.5436, 150
323, 2298.097, 1944.5436, 300
324, 2298.097, 1944.5436, 450
325, 2298.097, 1944.5436, 600
326, 1978.4746, 2181.7217, 0
327, 1978.4746, 2181.7217, 300
328, 1978.4746, 2181.7217, 600
329, 1625, 2381.5699, 0
330, 1625, 2381.5699, 150
331, 1625, 2381.5699, 300
332, 1625, 2381.5699, 450
333, 1625, 2381.5699, 600
334, 1243.7212, 2540.6687, 0
335, 1243.7212, 2540.6687, 300
336, 1243.7212, 2540.6687, 600
337, 841.1619, 2656.296, 0
338, 841.1619, 2656.296, 150
339, 841.1619, 2656.296, 300
340, 841.1619, 2656.296, 450
341, 841.1619, 2656.296, 600
342, 424.21012, 2726.4734, 0
343, 424.21012, 2726.4734, 300
344, 424.21012, 2726.4734, 600
345, 1.990051e-13, 2750, 0
346, 1.990051e-13, 2750, 150
347, 1.990051e-13, 2750, 300
348, 1.990051e-13, 2750, 450
349, 1.990051e-13, 2750, 600
*ELEMENT, TYPE=C3D20, ELSET=PLATE
1, 1, 75, 83, 9, 3, 77, 85, 11, 54, 80, 57, 6, 55, 81, 58, 7, 2, 76, 84, 10
2, 3, 77, 85, 11, 5, 79, 87, 13, 55, 81, 58, 7, 56, 82, 59, 8, 4, 78, 86, 12
3, 9, 83, 91, 17, 11, 85, 93, 19, 57, 88, 60, 14, 58, 89, 61, 15, 10, 84, 92, 18
4, 11, 85, 93, 19, 13, 87, 95, 21, 58, 89, 61, 15, 59, 90, 62, 16, 12, 86, 94, 20
5, 17, 91, 99, 25, 19, 93, 101, 27, 60, 96, 63, 22, 61, 97, 64, 23, 18, 92, 100, 26
6, 19, 93, 101, 27, 21, 95, 103, 29, 61, 97, 64, 23, 62, 98, 65, 24, 20, 94, 102, 28
7, 25, 99, 107, 33, 27, 101, 109, 35, 63, 104, 66, 30, 64, 105, 67, 31, 26, 100, 108, 34
8, 27, 101, 109, 35, 29, 103, 111, 37, 64, 105, 67, 31, 65, 106, 68, 32, 28, 102, 110, 36
9, 33, 107, 115, 41, 35, 109, 117, 43, 66, 112, 69, 38, 67, 113, 70, 39, 34, 108, 116, 42
10, 35, 109, 117, 43, 37, 111, 119, 45, 67, 113, 70, 39, 68, 114, 71, 40, 36, 110, 118, 44
11, 41, 115, 123, 49, 43, 117, 125, 51, 69, 120, 72, 46, 70, 121, 73, 47, 42, 116, 124, 50
12, 43, 117, 125, 51, 45, 119, 127, 53, 70, 121, 73, 47, 71, 122, 74, 48, 44, 118, 126, 52
13, 75, 149, 157, 83, 77, 151, 159, 85, 128, 154, 131, 80, 129, 155, 132, 81, 76, 150, 158, 84
14, 77, 151, 159, 85, 79, 153, 161, 87, 129, 155, 132, 81, 130, 156, 133, 82, 78, 152, 160, 86
15, 83, 157, 165, 91, 85, 159, 167, 93, 131, 162, 134, 88, 132, 163, 135, 89, 84, 158, 166, 92
16, 85, 159, 167, 93, 87, 161, 169, 95, 132, 163, 135, 89, 133, 164, 136, 90, 86, 160, 168, 94
17, 91, 165, 173, 99, 93, 167, 175, 101, 134, 170, 137, 96, 135, 171, 138, 97, 92, 166, 174, 100
18, 93, 167, 175, 101, 95, 169, 177, 103, 135, 171, 138, 97, 136, 172, 139, 98, 94, 168, 176, 102
19, 99, 173, 181, 107, 101, 175, 183, 109, 137, 178, 140, 104, 138, 179, 141, 105, 100, 174, 182, 108
20, 101, 175, 183, 109, 103, 177, 185, 111, 138, 179, 141, 105, 139, 180, 142, 106, 102, 176, 184, 110
21, 107, 181, 189, 115, 109, 183, 191, 117, 140, 186, 143, 112, 141, 187, 144, 113, 108, 182, 190, 116
22, 109, 183, 191, 117, 111, 185, 193, 119, 141, 187, 144, 113, 142, 188, 145, 114, 110, 184, 192, 118
23, 115, 189, 197, 123, 117, 191, 199, 125, 143, 194, 146, 120, 144, 195, 147, 121, 116, 190, 198, 124
24, 117, 191, 199, 125, 119, 193, 201, 127, 144, 195, 147, 121, 145, 196, 148, 122, 118, 192, 200, 126
25, 149, 223, 231, 157, 151, 225, 233, 159, 202, 228, 205, 154, 203, 229, 206, 155, 150, 224, 232, 158
26, 151, 225, 233, 159, 153, 227, 235, 161, 203, 229, 206, 155, 204, 230, 207, 156, 152, 226, 234, 160
27, 157, 231, 239, 165, 159, 233, 241, 167, 205, 236, 208, 162, 206, 237, 209, 163, 158, 232, 240, 166
28, 159, 233, 241, 167, 161, 235, 243, 169, 206, 237, 209, 163, 207, 238, 210, 164, 160, 234, 242, 168
29, 165, 239, 247, 173, 167, 241, 249, 175, 208, 244, 211, 170, 209, 245, 212, 171, 166, 240, 248, 174
30, 167, 241, 249, 175, 169, 243, 251, 177, 209, 245, 212, 171, 210, 246, 213, 172, 168, 242, 250, 176
31, 173, 247, 255, 181, 175, 249, 257, 183, 211, 252, 214, 178, 212, 253, 215, 179, 174, 248, 256, 182
32, 175, 249, 257, 183, 177, 251, 259, 185, 212, 253, 215, 179, 213, 254, 216, 180, 176, 250, 258, 184
33, 181, 255, 263, 189, 183, 257, 265, 191, 214, 260, 217, 186, 215, 261, 218, 187, 182, 256, 264, 190
34, 183, 257, 265, 191, 185, 259, 267, 193, 215, 261, 218, 187, 216, 262, 219, 188, 184, 258, 266, 192
35, 189, 263, 271, 197, 191, 265, 273, 199, 217, 268, 220, 194, 218, 269, 221, 195, 190, 264, 272, 198
36, 191, 265, 273, 199, 193, 267, 275, 201, 218, 269, 221, 195, 219, 270, 222, 196, 192, 266, 274, 200
37, 223, 297, 305, 231, 225, 299, 307, 233, 276, 302, 279, 228, 277, 303, 280, 229, 224, 298, 306, 232
38, 225, 299, 307, 233, 227, 301, 309, 235, 277, 303, 280, 229, 278, 304, 281, 230, 226, 300, 308, 234
39, 231, 305, 313, 239, 233, 307, 315, 241, 279, 310, 282, 236, 280, 311, 283, 237, 232, 306, 314, 240
40, 233, 307, 315, 241, 235, 309, 317, 243, 280, 311, 283, 237, 281, 312, 284, 238, 234, 308, 316, 242
41, 239, 313, 321, 247, 241, 315, 323, 249, 282, 318, 285, 244, 283, 319, 286, 245, 240, 314, 322, 248
42, 241, 315, 323, 249, 243, 317, 325, 251, 283, 319, 286, 245, 284, 320, 287, 246, 242, 316, 324, 250
43, 247, 321, 329, 255, 249, 323, 331, 257, 285, 326, 288, 252, 286, 327, 289, 253, 248, 322, 330, 256
44, 249, 323, 331, 257, 251, 325, 333, 259, 286, 327, 289, 253, 287, 328, 290, 254, 250, 324, 332, 258
45, 255, 329, 337, 263, 257, 331, 339, 265, 288, 334, 291, 260, 289, 335, 292, 261, 256, 330, 338, 264
46, 257, 331, 339, 265, 259, 333, 341, 267, 289, 335, 292, 261, 290, 336, 293, 262, 258, 332, 340, 266
47, 263, 337, 345, 271, 265, 339, 347, 273, 291, 342, 294, 268, 292, 343, 295, 269, 264, 338, 346, 272
48, 265, 339, 347, 273, 267, 341, 349, 275, 292, 343, 295, 269, 293, 344, 296, 270, 266, 340, 348, 274
*ELSET, ELSET=TOP
2, 4, 6, 8, 10, 12, 14, 16, 18, 20, 22, 24
26, 28, 30, 32, 34, 36, 38, 40, 42, 44, 46, 48
*NSET, NSET=D
5
*NSET, NSET=YS
1, 2, 3, 4, 5, 54, 55, 56, 75, 76, 77, 78
79, 128, 129, 130, 149, 150, 151, 152, 153, 202, 203, 204
223, 224, 225, 226, 227, 276, 277, 278, 297, 298, 299, 300
301
*NSET, NSET=XS
49, 50, 51, 52, 53, 72, 73, 74, 123, 124, 125, 126
127, 146, 147, 148, 197, 198, 199, 200, 201, 220, 221, 222
271, 272, 273, 274, 275, 294, 295, 296, 345, 346, 347, 348
349
*NSET, NSET=OUTER
297, 298, 299, 300, 301, 302, 303, 304, 305, 306, 307, 308
309, 310, 311, 312, 313, 314, 315, 316, 317, 318, 319, 320
321, 322, 323, 324, 325, 326, 327, 328, 329, 330, 331, 332
333, 334, 335, 336, 337, 338, 339, 340, 341, 342, 343, 344
345, 346, 347, 348, 349
*NSET, NSET=OMID
299, 303, 307, 311, 315, 319, 323, 327, 331, 335, 339, 343
347
*MATERIAL, NAME=STEEL
*ELASTIC
210000, 0.3
*SOLID SECTION, ELSET=PLATE, MATERIAL=STEEL
*BOUNDARY
YS, 2, 2
XS, 1, 1
OUTER, 1, 2
OMID, 3, 3
*STEP
*STATIC
*DLOAD
TOP, P2, -1
*NODE FILE
U
*EL FILE
S
*END STEP
