*HEADING
NAFEMS LE10 thick plate pressure (quarter, C3D20)
Target: syy(D) = -5.38 MPa at the inner top point on +x
** mesh 12 hoop x 8 radial x 4 thick, node D = 9
*NODE
1, 2000, 0, 0
2, 2000, 0, 75
3, 2000, 0, 150
4, 2000, 0, 225
5, 2000, 0, 300
6, 2000, 0, 375
7, 2000, 0, 450
8, 2000, 0, 525
9, 2000, 0, 600
10, 1995.7178, 65.403129, 0
11, 1995.7178, 65.403129, 150
12, 1995.7178, 65.403129, 300
13, 1995.7178, 65.403129, 450
14, 1995.7178, 65.403129, 600
15, 1982.8897, 130.52619, 0
16, 1982.8897, 130.52619, 75
17, 1982.8897, 130.52619, 150
18, 1982.8897, 130.52619, 225
19, 1982.8897, 130.52619, 300
20, 1982.8897, 130.52619, 375
21, 1982.8897, 130.52619, 450
22, 1982.8897, 130.52619, 525
23, 1982.8897, 130.52619, 600
24, 1961.5706, 195.09032, 0
25, 1961.5706, 195.09032, 150
26, 1961.5706, 195.09032, 300
27, 1961.5706, 195.09032, 450
28, 1961.5706, 195.09032, 600
29, 1931.8517, 258.81905, 0
30, 1931.8517, 258.81905, 75
31, 1931.8517, 258.81905, 150
32, 1931.8517, 258.81905, 225
33, 1931.8517, 258.81905, 300
34, 1931.8517, 258.81905, 375
35, 1931.8517, 258.81905, 450
36, 1931.8517, 258.81905, 525
37, 1931.8517, 258.81905, 600
38, 1893.8603, 321.43947, 0
39, 1893.8603, 321.43947, 150
40, 1893.8603, 321.43947, 300
41, 1893.8603, 321.43947, 450
42, 1893.8603, 321.43947, 600
43, 1847.7591, 382.68343, 0
44, 1847.7591, 382.68343, 75
45, 1847.7591, 382.68343, 150
46, 1847.7591, 382.68343, 225
47, 1847.7591, 382.68343, 300
48, 1847.7591, 382.68343, 375
49, 1847.7591, 382.68343, 450
50, 1847.7591, 382.68343, 525
51, 1847.7591, 382.68343, 600
52, 1793.7455, 442.28869, 0
53, 1793.7455, 442.28869, 150
54, 1793.7455, 442.28869, 300
55, 1793.7455, 442.28869, 450
56, 1793.7455, 442.28869, 600
57, 1732.0508, 500, 0
58, 1732.0508, 500, 75
59, 1732.0508, 500, 150
60, 1732.0508, 500, 225
61, 1732.0508, 500, 300
62, 1732.0508, 500, 375
63, 1732.0508, 500, 450
64, 1732.0508, 500, 525
65, 1732.0508, 500, 600
66, 1662.9392, 555.57023, 0
67, 1662.9392, 555.57023, 150
68, 1662.9392, 555.57023, 300
69, 1662.9392, 555.57023, 450
70, 1662.9392, 555.57023, 600
71, 1586.7067, 608.76143, 0
72, 1586.7067, 608.76143, 75
73, 1586.7067, 608.76143, 150
74, 1586.7067, 608.76143, 225
75, 1586.7067, 608.76143, 300
76, 1586.7067, 608.76143, 375
77, 1586.7067, 608.76143, 450
78, 1586.7067, 608.76143, 525
79, 1586.7067, 608.76143, 600
80, 1503.6796, 659.34582, 0
81, 1503.6796, 659.34582, 150
82, 1503.6796, 659.34582, 300
83, 1503.6796, 659.34582, 450
84, 1503.6796, 659.34582, 600
85, 1414.2136, 707.10678, 0
86, 1414.2136, 707.10678, 75
87, 1414.2136, 707.10678, 150
88, 1414.2136, 707.10678, 225
89, 1414.2136, 707.10678, 300
90, 1414.2136, 707.10678, 375
91, 1414.2136, 707.10678, 450
92, 1414.2136, 707.10678, 525
93, 1414.2136, 707.10678, 600
94, 1318.6916, 751.83981, 0
95, 1318.6916, 751.83981, 150
96, 1318.6916, 751.83981, 300
97, 1318.6916, 751.83981, 450
98, 1318.6916, 751.83981, 600
99, 1217.5229, 793.35334, 0
100, 1217.5229, 793.35334, 75
101, 1217.5229, 793.35334, 150
102, 1217.5229, 793.35334, 225
103, 1217.5229, 793.35334, 300
104, 1217.5229, 793.35334, 375
105, 1217.5229, 793.35334, 450
106, 1217.5229, 793.35334, 525
107, 1217.5229, 793.35334, 600
108, 1111.1405, 831.46961, 0
109, 1111.1405, 831.46961, 150
110, 1111.1405, 831.46961, 300
111, 1111.1405, 831.46961, 450
112, 1111.1405, 831.46961, 600
113, 1000, 866.0254, 0
114, 1000, 866.0254, 75
115, 1000, 866.0254, 150
116, 1000, 866.0254, 225
117, 1000, 866.0254, 300
118, 1000, 866.0254, 375
119, 1000, 866.0254, 450
120, 1000, 866.0254, 525
121, 1000, 866.0254, 600
122, 884.57738, 896.87274, 0
123, 884.57738, 896.87274, 150
124, 884.57738, 896.87274, 300
125, 884.57738, 896.87274, 450
126, 884.57738, 896.87274, 600
127, 765.36686, 923.87953, 0
128, 765.36686, 923.87953, 75
129, 765.36686, 923.87953, 150
130, 765.36686, 923.87953, 225
131, 765.36686, 923.87953, 300
132, 765.36686, 923.87953, 375
133, 765.36686, 923.87953, 450
134, 765.36686, 923.87953, 525
135, 765.36686, 923.87953, 600
136, 642.87893, 946.93013, 0
137, 642.87893, 946.93013, 150
138, 642.87893, 946.93013, 300
139, 642.87893, 946.93013, 450
140, 642.87893, 946.93013, 600
141, 517.63809, 965.92583, 0
142, 517.63809, 965.92583, 75
143, 517.63809, 965.92583, 150
144, 517.63809, 965.92583, 225
145, 517.63809, 965.92583, 300
146, 517.63809, 965.92583, 375
147, 517.63809, 965.92583, 450
148, 517.63809, 965.92583, 525
149, 517.63809, 965.92583, 600
150, 390.18064, 980.78528, 0
151, 390.18064, 980.78528, 150
152, 390.18064, 980.78528, 300
153, 390.18064, 980.78528, 450
154, 390.18064, 980.78528, 600
155, 261.05238, 991.44486, 0
156, 261.05238, 991.44486, 75
157, 261.05238, 991.44486, 150
158, 261.05238, 991.44486, 225
159, 261.05238, 991.44486, 300
160, 261.05238, 991.44486, 375
161, 261.05238, 991.44486, 450
162, 261.05238, 991.44486, 525
163, 261.05238, 991.44486, 600
164, 130.80626, 997.85892, 0
165, 130.80626, 997.85892, 150
166, 130.80626, 997.85892, 300
167, 130.80626, 997.85892, 450
168, 130.80626, 997.85892, 600
169, 1.2246468e-13, 1000, 0
170, 1.2246468e-13, 1000, 75
171, 1.2246468e-13, 1000, 150
172, 1.2246468e-13, 1000, 225
173, 1.2246468e-13, 1000, 300
174, 1.2246468e-13, 1000, 375
175, 1.2246468e-13, 1000, 450
176, 1.2246468e-13, 1000, 525
177, 1.2246468e-13, 1000, 600
178, 2078.125, 0, 0
179, 2078.125, 0, 150
180, 2078.125, 0, 300
181, 2078.125, 0, 450
182, 2078.125, 0, 600
183, 2060.3464, 144.80249, 0
184, 2060.3464, 144.80249, 150
185, 2060.3464, 144.80249, 300
186, 2060.3464, 144.80249, 450
187, 2060.3464, 144.80249, 600
188, 2007.3146, 287.12738, 0
189, 2007.3146, 287.12738, 150
190, 2007.3146, 287.12738, 300
191, 2007.3146, 287.12738, 450
192, 2007.3146, 287.12738, 600
193, 1919.9372, 424.53943, 0
194, 1919.9372, 424.53943, 150
195, 1919.9372, 424.53943, 300
196, 1919.9372, 424.53943, 450
197, 1919.9372, 424.53943, 600
198, 1799.709, 554.6875, 0
199, 1799.709, 554.6875, 150
200, 1799.709, 554.6875, 300
201, 1799.709, 554.6875, 450
202, 1799.709, 554.6875, 600
203, 1648.6874, 675.34471, 0
204, 1648.6874, 675.34471, 150
205, 1648.6874, 675.34471, 300
206, 1648.6874, 675.34471, 450
207, 1648.6874, 675.34471, 600
208, 1469.4563, 784.44659, 0
209, 1469.4563, 784.44659, 150
210, 1469.4563, 784.44659, 300
211, 1469.4563, 784.44659, 450
212, 1469.4563, 784.44659, 600
213, 1265.0823, 880.12636, 0
214, 1265.0823, 880.12636, 150
215, 1265.0823, 880.12636, 300
216, 1265.0823, 880.12636, 450
217, 1265.0823, 880.12636, 600
218, 1039.0625, 960.74693, 0
219, 1039.0625, 960.74693, 150
220, 1039.0625, 960.74693, 300
221, 1039.0625, 960.74693, 450
222, 1039.0625, 960.74693, 600
223, 795.26401, 1024.9289, 0
224, 795.26401, 1024.9289, 150
225, 795.26401, 1024.9289, 300
226, 795.26401, 1024.9289, 450
227, 795.26401, 1024.9289, 600
228, 537.85833, 1071.574, 0
229, 537.85833, 1071.574, 150
230, 537.85833, 1071.574, 300
231, 537.85833, 1071.574, 450
232, 537.85833, 1071.574, 600
233, 271.24974, 1099.8841, 0
234, 271.24974, 1099.8841, 150
235, 271.24974, 1099.8841, 300
236, 271.24974, 1099.8841, 450
237, 271.24974, 1099.8841, 600
238, 1.2724846e-13, 1109.375, 0
239, 1.2724846e-13, 1109.375, 150
240, 1.2724846e-13, 1109.375, 300
241, 1.2724846e-13, 1109.375, 450
242, 1.2724846e-13, 1109.375, 600
243, 2156.25, 0, 0
244, 2156.25, 0, 75
245, 2156.25, 0, 150
246, 2156.25, 0, 225
247, 2156.25, 0, 300
248, 2156.25, 0, 375
249, 2156.25, 0, 450
250, 2156.25, 0, 525
251, 2156.25, 0, 600
252, 2151.6333, 79.710064, 0
253, 2151.6333, 79.710064, 150
254, 2151.6333, 79.710064, 300
255, 2151.6333, 79.710064, 450
256, 2151.6333, 79.710064, 600
257, 2137.803, 159.0788, 0
258, 2137.803, 159.0788, 75
259, 2137.803, 159.0788, 150
260, 2137.803, 159.0788, 225
261, 2137.803, 159.0788, 300
262, 2137.803, 159.0788, 375
263, 2137.803, 159.0788, 450
264, 2137.803, 159.0788, 525
265, 2137.803, 159.0788, 600
266, 2114.8183, 237.76633, 0
267, 2114.8183, 237.76633, 150
268, 2114.8183, 237.76633, 300
269, 2114.8183, 237.76633, 450
270, 2114.8183, 237.76633, 600
271, 2082.7776, 315.43571, 0
272, 2082.7776, 315.43571, 75
273, 2082.7776, 315.43571, 150
274, 2082.7776, 315.43571, 225
275, 2082.7776, 315.43571, 300
276, 2082.7776, 315.43571, 375
277, 2082.7776, 315.43571, 450
278, 2082.7776, 315.43571, 525
279, 2082.7776, 315.43571, 600
280, 2041.8181, 391.75435, 0
281, 2041.8181, 391.75435, 150
282, 2041.8181, 391.75435, 300
283, 2041.8181, 391.75435, 450
284, 2041.8181, 391.75435, 600
285, 1992.1152, 466.39543, 0
286, 1992.1152, 466.39543, 75
287, 1992.1152, 466.39543, 150
288, 1992.1152, 466.39543, 225
289, 1992.1152, 466.39543, 300
290, 1992.1152, 466.39543, 375
291, 1992.1152, 466.39543, 450
292, 1992.1152, 466.39543, 525
293, 1992.1152, 466.39543, 600
294, 1933.8818, 539.03934, 0
295, 1933.8818, 539.03934, 150
296, 1933.8818, 539.03934, 300
297, 1933.8818, 539.03934, 450
298, 1933.8818, 539.03934, 600
299, 1867.3673, 609.375, 0
300, 1867.3673, 609.375, 75
301, 1867.3673, 609.375, 150
302, 1867.3673, 609.375, 225
303, 1867.3673, 609.375, 300
304, 1867.3673, 609.375, 375
305, 1867.3673, 609.375, 450
306, 1867.3673, 609.375, 525
307, 1867.3673, 609.375, 600
308, 1792.8564, 677.10122, 0
309, 1792.8564, 677.10122, 150
310, 1792.8564, 677.10122, 300
311, 1792.8564, 677.10122, 450
312, 1792.8564, 677.10122, 600
313, 1710.6681, 741.92799, 0
314, 1710.6681, 741.92799, 75
315, 1710.6681, 741.92799, 150
316, 1710.6681, 741.92799, 225
317, 1710.6681, 741.92799, 300
318, 1710.6681, 741.92799, 375
319, 1710.6681, 741.92799, 450
320, 1710.6681, 741.92799, 525
321, 1710.6681, 741.92799, 600
322, 1621.1546, 803.57771, 0
323, 1621.1546, 803.57771, 150
324, 1621.1546, 803.57771, 300
325, 1621.1546, 803.57771, 450
326, 1621.1546, 803.57771, 600
327, 1524.699, 861.78639, 0
328, 1524.699, 861.78639, 75
329, 1524.699, 861.78639, 150
330, 1524.699, 861.78639, 225
331, 1524.699, 861.78639, 300
332, 1524.699, 861.78639, 375
333, 1524.699, 861.78639, 450
334, 1524.699, 861.78639, 525
335, 1524.699, 861.78639, 600
336, 1421.7144, 916.30477, 0
337, 1421.7144, 916.30477, 150
338, 1421.7144, 916.30477, 300
339, 1421.7144, 916.30477, 450
340, 1421.7144, 916.30477, 600
341, 1312.6418, 966.89938, 0
342, 1312.6418, 966.89938, 75
343, 1312.6418, 966.89938, 150
344, 1312.6418, 966.89938, 225
345, 1312.6418, 966.89938, 300
346, 1312.6418, 966.89938, 375
347, 1312.6418, 966.89938, 450
348, 1312.6418, 966.89938, 525
349, 1312.6418, 966.89938, 600
350, 1197.9483, 1013.3536, 0
351, 1197.9483, 1013.3536, 150
352, 1197.9483, 1013.3536, 300
353, 1197.9483, 1013.3536, 450
354, 1197.9483, 1013.3536, 600
355, 1078.125, 1055.4685, 0
356, 1078.125, 1055.4685, 75
357, 1078.125, 1055.4685, 150
358, 1078.125, 1055.4685, 225
359, 1078.125, 1055.4685, 300
360, 1078.125, 1055.4685, 375
361, 1078.125, 1055.4685, 450
362, 1078.125, 1055.4685, 525
363, 1078.125, 1055.4685, 600
364, 953.68499, 1093.0637, 0
365, 953.68499, 1093.0637, 150
366, 953.68499, 1093.0637, 300
367, 953.68499, 1093.0637, 450
368, 953.68499, 1093.0637, 600
369, 825.16115, 1125.9782, 0
370, 825.16115, 1125.9782, 75
371, 825.16115, 1125.9782, 150
372, 825.16115, 1125.9782, 225
373, 825.16115, 1125.9782, 300
374, 825.16115, 1125.9782, 375
375, 825.16115, 1125.9782, 450
376, 825.16115, 1125.9782, 525
377, 825.16115, 1125.9782, 600
378, 693.10385, 1154.0711, 0
379, 693.10385, 1154.0711, 150
380, 693.10385, 1154.0711, 300
381, 693.10385, 1154.0711, 450
382, 693.10385, 1154.0711, 600
383, 558.07857, 1177.2221, 0
384, 558.07857, 1177.2221, 75
385, 558.07857, 1177.2221, 150
386, 558.07857, 1177.2221, 225
387, 558.07857, 1177.2221, 300
388, 558.07857, 1177.2221, 375
389, 558.07857, 1177.2221, 450
390, 558.07857, 1177.2221, 525
391, 558.07857, 1177.2221, 600
392, 420.66351, 1195.3321, 0
393, 420.66351, 1195.3321, 150
394, 420.66351, 1195.3321, 300
395, 420.66351, 1195.3321, 450
396, 420.66351, 1195.3321, 600
397, 281.4471, 1208.3234, 0
398, 281.4471, 1208.3234, 75
399, 281.4471, 1208.3234, 150
400, 281.4471, 1208.3234, 225
401, 281.4471, 1208.3234, 300
402, 281.4471, 1208.3234, 375
403, 281.4471, 1208.3234, 450
404, 281.4471, 1208.3234, 525
405, 281.4471, 1208.3234, 600
406, 141.0255, 1216.1406, 0
407, 141.0255, 1216.1406, 150
408, 141.0255, 1216.1406, 300
409, 141.0255, 1216.1406, 450
410, 141.0255, 1216.1406, 600
411, 1.3203223e-13, 1218.75, 0
412, 1.3203223e-13, 1218.75, 75
413, 1.3203223e-13, 1218.75, 150
414, 1.3203223e-13, 1218.75, 225
415, 1.3203223e-13, 1218.75, 300
416, 1.3203223e-13, 1218.75, 375
417, 1.3203223e-13, 1218.75, 450
418, 1.3203223e-13, 1218.75, 525
419, 1.3203223e-13, 1218.75, 600
420, 2234.375, 0, 0
421, 2234.375, 0, 150
422, 2234.375, 0, 300
423, 2234.375, 0, 450
424, 2234.375, 0, 600
425, 2215.2596, 173.3551, 0
426, 2215.2596, 173.3551, 150
427, 2215.2596, 173.3551, 300
428, 2215.2596, 173.3551, 450
429, 2215.2596, 173.3551, 600
430, 2158.2405, 343.74404, 0
431, 2158.2405, 343.74404, 150
432, 2158.2405, 343.74404, 300
433, 2158.2405, 343.74404, 450
434, 2158.2405, 343.74404, 600
435, 2064.2933, 508.25143, 0
436, 2064.2933, 508.25143, 150
437, 2064.2933, 508.25143, 300
438, 2064.2933, 508.25143, 450
439, 2064.2933, 508.25143, 600
440, 1935.0255, 664.0625, 0
441, 1935.0255, 664.0625, 150
442, 1935.0255, 664.0625, 300
443, 1935.0255, 664.0625, 450
444, 1935.0255, 664.0625, 600
445, 1772.6489, 808.51127, 0
446, 1772.6489, 808.51127, 150
447, 1772.6489, 808.51127, 300
448, 1772.6489, 808.51127, 450
449, 1772.6489, 808.51127, 600
450, 1579.9417, 939.12619, 0
451, 1579.9417, 939.12619, 150
452, 1579.9417, 939.12619, 300
453, 1579.9417, 939.12619, 450
454, 1579.9417, 939.12619, 600
455, 1360.2013, 1053.6724, 0
456, 1360.2013, 1053.6724, 150
457, 1360.2013, 1053.6724, 300
458, 1360.2013, 1053.6724, 450
459, 1360.2013, 1053.6724, 600
460, 1117.1875, 1150.19, 0
461, 1117.1875, 1150.19, 150
462, 1117.1875, 1150.19, 300
463, 1117.1875, 1150.19, 450
464, 1117.1875, 1150.19, 600
465, 855.05829, 1227.0275, 0
466, 855.05829, 1227.0275, 150
467, 855.05829, 1227.0275, 300
468, 855.05829, 1227.0275, 450
469, 855.05829, 1227.0275, 600
470, 578.2988, 1282.8702, 0
471, 578.2988, 1282.8702, 150
472, 578.2988, 1282.8702, 300
473, 578.2988, 1282.8702, 450
474, 578.2988, 1282.8702, 600
475, 291.64446, 1316.7627, 0
476, 291.64446, 1316.7627, 150
477, 291.64446, 1316.7627, 300
478, 291.64446, 1316.7627, 450
479, 291.64446, 1316.7627, 600
480, 1.3681601e-13, 1328.125, 0
481, 1.3681601e-13, 1328.125, 150
482, 1.3681601e-13, 1328.125, 300
483, 1.3681601e-13, 1328.125, 450
484, 1.3681601e-13, 1328.125, 600
485, 2312.5, 0, 0
486, 2312.5, 0, 75
487, 2312.5, 0, 150
488, 2312.5, 0, 225
489, 2312.5, 0, 300
490, 2312.5, 0, 375
491, 2312.5, 0, 450
492, 2312.5, 0, 525
493, 2312.5, 0, 600
494, 2307.5488, 94.016998, 0
495, 2307.5488, 94.016998, 150
496, 2307.5488, 94.016998, 300
497, 2307.5488, 94.016998, 450
498, 2307.5488, 94.016998, 600
499, 2292.7162, 187.6314, 0
500, 2292.7162, 187.6314, 75
501, 2292.7162, 187.6314, 150
502, 2292.7162, 187.6314, 225
503, 2292.7162, 187.6314, 300
504, 2292.7162, 187.6314, 375
505, 2292.7162, 187.6314, 450
506, 2292.7162, 187.6314, 525
507, 2292.7162, 187.6314, 600
508, 2268.066, 280.44234, 0
509, 2268.066, 280.44234, 150
510, 2268.066, 280.44234, 300
511, 2268.066, 280.44234, 450
512, 2268.066, 280.44234, 600
513, 2233.7035, 372.05238, 0
514, 2233.7035, 372.05238, 75
515, 2233.7035, 372.05238, 150
516, 2233.7035, 372.05238, 225
517, 2233.7035, 372.05238, 300
518, 2233.7035, 372.05238, 375
519, 2233.7035, 372.05238, 450
520, 2233.7035, 372.05238, 525
521, 2233.7035, 372.05238, 600
522, 2189.7759, 462.06923, 0
523, 2189.7759, 462.06923, 150
524, 2189.7759, 462.06923, 300
525, 2189.7759, 462.06923, 450
526, 2189.7759, 462.06923, 600
527, 2136.4714, 550.10743, 0
528, 2136.4714, 550.10743, 75
529, 2136.4714, 550.10743, 150
530, 2136.4714, 550.10743, 225
531, 2136.4714, 550.10743, 300
532, 2136.4714, 550.10743, 375
533, 2136.4714, 550.10743, 450
534, 2136.4714, 550.10743, 525
535, 2136.4714, 550.10743, 600
536, 2074.0182, 635.78999, 0
537, 2074.0182, 635.78999, 150
538, 2074.0182, 635.78999, 300
539, 2074.0182, 635.78999, 450
540, 2074.0182, 635.78999, 600
541, 2002.6837, 718.75, 0
542, 2002.6837, 718.75, 75
543, 2002.6837, 718.75, 150
544, 2002.6837, 718.75, 225
545, 2002.6837, 718.75, 300
546, 2002.6837, 718.75, 375
547, 2002.6837, 718.75, 450
548, 2002.6837, 718.75, 525
549, 2002.6837, 718.75, 600
550, 1922.7735, 798.63221, 0
551, 1922.7735, 798.63221, 150
552, 1922.7735, 798.63221, 300
553, 1922.7735, 798.63221, 450
554, 1922.7735, 798.63221, 600
555, 1834.6296, 875.09455, 0
556, 1834.6296, 875.09455, 75
557, 1834.6296, 875.09455, 150
558, 1834.6296, 875.09455, 225
559, 1834.6296, 875.09455, 300
560, 1834.6296, 875.09455, 375
561, 1834.6296, 875.09455, 450
562, 1834.6296, 875.09455, 525
563, 1834.6296, 875.09455, 600
564, 1738.6296, 947.80961, 0
565, 1738.6296, 947.80961, 150
566, 1738.6296, 947.80961, 300
567, 1738.6296, 947.80961, 450
568, 1738.6296, 947.80961, 600
569, 1635.1844, 1016.466, 0
570, 1635.1844, 1016.466, 75
571, 1635.1844, 1016.466, 150
572, 1635.1844, 1016.466, 225
573, 1635.1844, 1016.466, 300
574, 1635.1844, 1016.466, 375
575, 1635.1844, 1016.466, 450
576, 1635.1844, 1016.466, 525
577, 1635.1844, 1016.466, 600
578, 1524.7372, 1080.7697, 0
579, 1524.7372, 1080.7697, 150
580, 1524.7372, 1080.7697, 300
581, 1524.7372, 1080.7697, 450
582, 1524.7372, 1080.7697, 600
583, 1407.7608, 1140.4454, 0
584, 1407.7608, 1140.4454, 75
585, 1407.7608, 1140.4454, 150
586, 1407.7608, 1140.4454, 225
587, 1407.7608, 1140.4454, 300
588, 1407.7608, 1140.4454, 375
589, 1407.7608, 1140.4454, 450
590, 1407.7608, 1140.4454, 525
591, 1407.7608, 1140.4454, 600
592, 1284.7562, 1195.2376, 0
593, 1284.7562, 1195.2376, 150
594, 1284.7562, 1195.2376, 300
595, 1284.7562, 1195.2376, 450
596, 1284.7562, 1195.2376, 600
597, 1156.25, 1244.9115, 0
598, 1156.25, 1244.9115, 75
599, 1156.25, 1244.9115, 150
600, 1156.25, 1244.9115, 225
601, 1156.25, 1244.9115, 300
602, 1156.25, 1244.9115, 375
603, 1156.25, 1244.9115, 450
604, 1156.25, 1244.9115, 525
605, 1156.25, 1244.9115, 600
606, 1022.7926, 1289.2546, 0
607, 1022.7926, 1289.2546, 150
608, 1022.7926, 1289.2546, 300
609, 1022.7926, 1289.2546, 450
610, 1022.7926, 1289.2546, 600
611, 884.95544, 1328.0768, 0
612, 884.95544, 1328.0768, 75
613, 884.95544, 1328.0768, 150
614, 884.95544, 1328.0768, 225
615, 884.95544, 1328.0768, 300
616, 884.95544, 1328.0768, 375
617, 884.95544, 1328.0768, 450
618, 884.95544, 1328.0768, 525
619, 884.95544, 1328.0768, 600
620, 743.32876, 1361.2121, 0
621, 743.32876, 1361.2121, 150
622, 743.32876, 1361.2121, 300
623, 743.32876, 1361.2121, 450
624, 743.32876, 1361.2121, 600
625, 598.51904, 1388.5184, 0
626, 598.51904, 1388.5184, 75
627, 598.51904, 1388.5184, 150
628, 598.51904, 1388.5184, 225
629, 598.51904, 1388.5184, 300
630, 598.51904, 1388.5184, 375
631, 598.51904, 1388.5184, 450
632, 598.51904, 1388.5184, 525
633, 598.51904, 1388.5184, 600
634, 451.14637, 1409.8788, 0
635, 451.14637, 1409.8788, 150
636, 451.14637, 1409.8788, 300
637, 451.14637, 1409.8788, 450
638, 451.14637, 1409.8788, 600
639, 301.84182, 1425.202, 0
640, 301.84182, 1425.202, 75
641, 301.84182, 1425.202, 150
642, 301.84182, 1425.202, 225
643, 301.84182, 1425.202, 300
644, 301.84182, 1425.202, 375
645, 301.84182, 1425.202, 450
646, 301.84182, 1425.202, 525
647, 301.84182, 1425.202, 600
648, 151.24474, 1434.4222, 0
649, 151.24474, 1434.4222, 150
650, 151.24474, 1434.4222, 300
651, 151.24474, 1434.4222, 450
652, 151.24474, 1434.4222, 600
653, 1.4159979e-13, 1437.5, 0
654, 1.4159979e-13, 1437.5, 75
655, 1.4159979e-13, 1437.5, 150
656, 1.4159979e-13, 1437.5, 225
657, 1.4159979e-13, 1437.5, 300
658, 1.4159979e-13, 1437.5, 375
659, 1.4159979e-13, 1437.5, 450
660, 1.4159979e-13, 1437.5, 525
661, 1.4159979e-13, 1437.5, 600
662, 2390.625, 0, 0
663, 2390.625, 0, 150
664, 2390.625, 0, 300
665, 2390.625, 0, 450
666, 2390.625, 0, 600
667, 2370.1729, 201.9077, 0
668, 2370.1729, 201.9077, 150
669, 2370.1729, 201.9077, 300
670, 2370.1729, 201.9077, 450
671, 2370.1729, 201.9077, 600
672, 2309.1664, 400.36071, 0
673, 2309.1664, 400.36071, 150
674, 2309.1664, 400.36071, 300
675, 2309.1664, 400.36071, 450
676, 2309.1664, 400.36071, 600
677, 2208.6495, 591.96343, 0
678, 2208.6495, 591.96343, 150
679, 2208.6495, 591.96343, 300
680, 2208.6495, 591.96343, 450
681, 2208.6495, 591.96343, 600
682, 2070.342, 773.4375, 0
683, 2070.342, 773.4375, 150
684, 2070.342, 773.4375, 300
685, 2070.342, 773.4375, 450
686, 2070.342, 773.4375, 600
687, 1896.6103, 941.67784, 0
688, 1896.6103, 941.67784, 150
689, 1896.6103, 941.67784, 300
690, 1896.6103, 941.67784, 450
691, 1896.6103, 941.67784, 600
692, 1690.4271, 1093.8058, 0
693, 1690.4271, 1093.8058, 150
694, 1690.4271, 1093.8058, 300
695, 1690.4271, 1093.8058, 450
696, 1690.4271, 1093.8058, 600
697, 1455.3203, 1227.2184, 0
698, 1455.3203, 1227.2184, 150
699, 1455.3203, 1227.2184, 300
700, 1455.3203, 1227.2184, 450
701, 1455.3203, 1227.2184, 600
702, 1195.3125, 1339.633, 0
703, 1195.3125, 1339.633, 150
704, 1195.3125, 1339.633, 300
705, 1195.3125, 1339.633, 450
706, 1195.3125, 1339.633, 600
707, 914.85258, 1429.1262, 0
708, 914.85258, 1429.1262, 150
709, 914.85258, 1429.1262, 300
710, 914.85258, 1429.1262, 450
711, 914.85258, 1429.1262, 600
712, 618.73928, 1494.1665, 0
713, 618.73928, 1494.1665, 150
714, 618.73928, 1494.1665, 300
715, 618.73928, 1494.1665, 450
716, 618.73928, 1494.1665, 600
717, 312.03918, 1533.6413, 0
718, 312.03918, 1533.6413, 150
719, 312.03918, 1533.6413, 300
720, 312.03918, 1533.6413, 450
721, 312.03918, 1533.6413, 600
722, 1.4638356e-13, 1546.875, 0
723, 1.4638356e-13, 1546.875, 150
724, 1.4638356e-13, 1546.875, 300
725, 1.4638356e-13, 1546.875, 450
726, 1.4638356e-13, 1546.875, 600
727, 2468.75, 0, 0
728, 2468.75, 0, 75
729, 2468.75, 0, 150
730, 2468.75, 0, 225
731, 2468.75, 0, 300
732, 2468.75, 0, 375
733, 2468.75, 0, 450
734, 2468.75, 0, 525
735, 2468.75, 0, 600
736, 2463.4642, 108.32393, 0
737, 2463.4642, 108.32393, 150
738, 2463.4642, 108.32393, 300
739, 2463.4642, 108.32393, 450
740, 2463.4642, 108.32393, 600
741, 2447.6295, 216.18401, 0
742, 2447.6295, 216.18401, 75
743, 2447.6295, 216.18401, 150
744, 2447.6295, 216.18401, 225
745, 2447.6295, 216.18401, 300
746, 2447.6295, 216.18401, 375
747, 2447.6295, 216.18401, 450
748, 2447.6295, 216.18401, 525
749, 2447.6295, 216.18401, 600
750, 2421.3137, 323.11835, 0
751, 2421.3137, 323.11835, 150
752, 2421.3137, 323.11835, 300
753, 2421.3137, 323.11835, 450
754, 2421.3137, 323.11835, 600
755, 2384.6294, 428.66904, 0
756, 2384.6294, 428.66904, 75
757, 2384.6294, 428.66904, 150
758, 2384.6294, 428.66904, 225
759, 2384.6294, 428.66904, 300
760, 2384.6294, 428.66904, 375
761, 2384.6294, 428.66904, 450
762, 2384.6294, 428.66904, 525
763, 2384.6294, 428.66904, 600
764, 2337.7338, 532.38411, 0
765, 2337.7338, 532.38411, 150
766, 2337.7338, 532.38411, 300
767, 2337.7338, 532.38411, 450
768, 2337.7338, 532.38411, 600
769, 2280.8276, 633.81943, 0
770, 2280.8276, 633.81943, 75
771, 2280.8276, 633.81943, 150
772, 2280.8276, 633.81943, 225
773, 2280.8276, 633.81943, 300
774, 2280.8276, 633.81943, 375
775, 2280.8276, 633.81943, 450
776, 2280.8276, 633.81943, 525
777, 2280.8276, 633.81943, 600
778, 2214.1546, 732.54064, 0
779, 2214.1546, 732.54064, 150
780, 2214.1546, 732.54064, 300
781, 2214.1546, 732.54064, 450
782, 2214.1546, 732.54064, 600
783, 2138.0002, 828.125, 0
784, 2138.0002, 828.125, 75
785, 2138.0002, 828.125, 150
786, 2138.0002, 828.125, 225
787, 2138.0002, 828.125, 300
788, 2138.0002, 828.125, 375
789, 2138.0002, 828.125, 450
790, 2138.0002, 828.125, 525
791, 2138.0002, 828.125, 600
792, 2052.6906, 920.1632, 0
793, 2052.6906, 920.1632, 150
794, 2052.6906, 920.1632, 300
795, 2052.6906, 920.1632, 450
796, 2052.6906, 920.1632, 600
797, 1958.5911, 1008.2611, 0
798, 1958.5911, 1008.2611, 75
799, 1958.5911, 1008.2611, 150
800, 1958.5911, 1008.2611, 225
801, 1958.5911, 1008.2611, 300
802, 1958.5911, 1008.2611, 375
803, 1958.5911, 1008.2611, 450
804, 1958.5911, 1008.2611, 525
805, 1958.5911, 1008.2611, 600
806, 1856.1045, 1092.0415, 0
807, 1856.1045, 1092.0415, 150
808, 1856.1045, 1092.0415, 300
809, 1856.1045, 1092.0415, 450
810, 1856.1045, 1092.0415, 600
811, 1745.6699, 1171.1456, 0
812, 1745.6699, 1171.1456, 75
813, 1745.6699, 1171.1456, 150
814, 1745.6699, 1171.1456, 225
815, 1745.6699, 1171.1456, 300
816, 1745.6699, 1171.1456, 375
817, 1745.6699, 1171.1456, 450
818, 1745.6699, 1171.1456, 525
819, 1745.6699, 1171.1456, 600
820, 1627.76, 1245.2347, 0
821, 1627.76, 1245.2347, 150
822, 1627.76, 1245.2347, 300
823, 1627.76, 1245.2347, 450
824, 1627.76, 1245.2347, 600
825, 1502.8798, 1313.9915, 0
826, 1502.8798, 1313.9915, 75
827, 1502.8798, 1313.9915, 150
828, 1502.8798, 1313.9915, 225
829, 1502.8798, 1313.9915, 300
830, 1502.8798, 1313.9915, 375
831, 1502.8798, 1313.9915, 450
832, 1502.8798, 1313.9915, 525
833, 1502.8798, 1313.9915, 600
834, 1371.564, 1377.1215, 0
835, 1371.564, 1377.1215, 150
836, 1371.564, 1377.1215, 300
837, 1371.564, 1377.1215, 450
838, 1371.564, 1377.1215, 600
839, 1234.375, 1434.3546, 0
840, 1234.375, 1434.3546, 75
841, 1234.375, 1434.3546, 150
842, 1234.375, 1434.3546, 225
843, 1234.375, 1434.3546, 300
844, 1234.375, 1434.3546, 375
845, 1234.375, 1434.3546, 450
846, 1234.375, 1434.3546, 525
847, 1234.375, 1434.3546, 600
848, 1091.9002, 1485.4455, 0
849, 1091.9002, 1485.4455, 150
850, 1091.9002, 1485.4455, 300
851, 1091.9002, 1485.4455, 450
852, 1091.9002, 1485.4455, 600
853, 944.74972, 1530.1755, 0
854, 944.74972, 1530.1755, 75
855, 944.74972, 1530.1755, 150
856, 944.74972, 1530.1755, 225
857, 944.74972, 1530.1755, 300
858, 944.74972, 1530.1755, 375
859, 944.74972, 1530.1755, 450
860, 944.74972, 1530.1755, 525
861, 944.74972, 1530.1755, 600
862, 793.55368, 1568.353, 0
863, 793.55368, 1568.353, 150
864, 793.55368, 1568.353, 300
865, 793.55368, 1568.353, 450
866, 793.55368, 1568.353, 600
867, 638.95952, 1599.8146, 0
868, 638.95952, 1599.8146, 75
869, 638.95952, 1599.8146, 150
870, 638.95952, 1599.8146, 225
871, 638.95952, 1599.8146, 300
872, 638.95952, 1599.8146, 375
873, 638.95952, 1599.8146, 450
874, 638.95952, 1599.8146, 525
875, 638.95952, 1599.8146, 600
876, 481.62923, 1624.4256, 0
877, 481.62923, 1624.4256, 150
878, 481.62923, 1624.4256, 300
879, 481.62923, 1624.4256, 450
880, 481.62923, 1624.4256, 600
881, 322.23654, 1642.0806, 0
882, 322.23654, 1642.0806, 75
883, 322.23654, 1642.0806, 150
884, 322.23654, 1642.0806, 225
885, 322.23654, 1642.0806, 300
886, 322.23654, 1642.0806, 375
887, 322.23654, 1642.0806, 450
888, 322.23654, 1642.0806, 525
889, 322.23654, 1642.0806, 600
890, 161.46398, 1652.7038, 0
891, 161.46398, 1652.7038, 150
892, 161.46398, 1652.7038, 300
893, 161.46398, 1652.7038, 450
894, 161.46398, 1652.7038, 600
895, 1.5116734e-13, 1656.25, 0
896, 1.5116734e-13, 1656.25, 75
897, 1.5116734e-13, 1656.25, 150
898, 1.5116734e-13, 1656.25, 225
899, 1.5116734e-13, 1656.25, 300
900, 1.5116734e-13, 1656.25, 375
901, 1.5116734e-13, 1656.25, 450
902, 1.5116734e-13, 1656.25, 525
903, 1.5116734e-13, 1656.25, 600
904, 2546.875, 0, 0
905, 2546.875, 0, 150
906, 2546.875, 0, 300
907, 2546.875, 0, 450
908, 2546.875, 0, 600
909, 2525.0861, 230.46031, 0
910, 2525.0861, 230.46031, 150
911, 2525.0861, 230.46031, 300
912, 2525.0861, 230.46031, 450
913, 2525.0861, 230.46031, 600
914, 2460.0923, 456.97738, 0
915, 2460.0923, 456.97738, 150
916, 2460.0923, 456.97738, 300
917, 2460.0923, 456.97738, 450
918, 2460.0923, 456.97738, 600
919, 2353.0057, 675.67544, 0
920, 2353.0057, 675.67544, 150
921, 2353.0057, 675.67544, 300
922, 2353.0057, 675.67544, 450
923, 2353.0057, 675.67544, 600
924, 2205.6585, 882.8125, 0
925, 2205.6585, 882.8125, 150
926, 2205.6585, 882.8125, 300
927, 2205.6585, 882.8125, 450
928, 2205.6585, 882.8125, 600
929, 2020.5718, 1074.8444, 0
930, 2020.5718, 1074.8444, 150
931, 2020.5718, 1074.8444, 300
932, 2020.5718, 1074.8444, 450
933, 2020.5718, 1074.8444, 600
934, 1800.9126, 1248.4854, 0
935, 1800.9126, 1248.4854, 150
936, 1800.9126, 1248.4854, 300
937, 1800.9126, 1248.4854, 450
938, 1800.9126, 1248.4854, 600
939, 1550.4393, 1400.7645, 0
940, 1550.4393, 1400.7645, 150
941, 1550.4393, 1400.7645, 300
942, 1550.4393, 1400.7645, 450
943, 1550.4393, 1400.7645, 600
944, 1273.4375, 1529.0761, 0
945, 1273.4375, 1529.0761, 150
946, 1273.4375, 1529.0761, 300
947, 1273.4375, 1529.0761, 450
948, 1273.4375, 1529.0761, 600
949, 974.64687, 1631.2248, 0
950, 974.64687, 1631.2248, 150
951, 974.64687, 1631.2248, 300
952, 974.64687, 1631.2248, 450
953, 974.64687, 1631.2248, 600
954, 659.17976, 1705.4628, 0
955, 659.17976, 1705.4628, 150
956, 659.17976, 1705.4628, 300
957, 659.17976, 1705.4628, 450
958, 659.17976, 1705.4628, 600
959, 332.4339, 1750.5198, 0
960, 332.4339, 1750.5198, 150
961, 332.4339, 1750.5198, 300
962, 332.4339, 1750.5198, 450
963, 332.4339, 1750.5198, 600
964, 1.5595112e-13, 1765.625, 0
965, 1.5595112e-13, 1765.625, 150
966, 1.5595112e-13, 1765.625, 300
967, 1.5595112e-13, 1765.625, 450
968, 1.5595112e-13, 1765.625, 600
969, 2625, 0, 0
970, 2625, 0, 75
971, 2625, 0, 150
972, 2625, 0, 225
973, 2625, 0, 300
974, 2625, 0, 375
975, 2625, 0, 450
976, 2625, 0, 525
977, 2625, 0, 600
978, 2619.3797, 122.63087, 0
979, 2619.3797, 122.63087, 150
980, 2619.3797, 122.63087, 300
981, 2619.3797, 122.63087, 450
982, 2619.3797, 122.63087, 600
983, 2602.5428, 244.73661, 0
984, 2602.5428, 244.73661, 75
985, 2602.5428, 244.73661, 150
986, 2602.5428, 244.73661, 225
987, 2602.5428, 244.73661, 300
988, 2602.5428, 244.73661, 375
989, 2602.5428, 244.73661, 450
990, 2602.5428, 244.73661, 525
991, 2602.5428, 244.73661, 600
992, 2574.5614, 365.79435, 0
993, 2574.5614, 365.79435, 150
994, 2574.5614, 365.79435, 300
995, 2574.5614, 365.79435, 450
996, 2574.5614, 365.79435, 600
997, 2535.5553, 485.28571, 0
998, 2535.5553, 485.28571, 75
999, 2535.5553, 485.28571, 150
1000, 2535.5553, 485.28571, 225
1001, 2535.5553, 485.28571, 300
1002, 2535.5553, 485.28571, 375
1003, 2535.5553, 485.28571, 450
1004, 2535.5553, 485.28571, 525
1005, 2535.5553, 485.28571, 600
1006, 2485.6916, 602.699, 0
1007, 2485.6916, 602.699, 150
1008, 2485.6916, 602.699, 300
1009, 2485.6916, 602.699, 450
1010, 2485.6916, 602.699, 600
1011, 2425.1838, 717.53144, 0
1012, 2425.1838, 717.53144, 75
1013, 2425.1838, 717.53144, 150
1014, 2425.1838, 717.53144, 225
1015, 2425.1838, 717.53144, 300
1016, 2425.1838, 717.53144, 375
1017, 2425.1838, 717.53144, 450
1018, 2425.1838, 717.53144, 525
1019, 2425.1838, 717.53144, 600
1020, 2354.2909, 829.29129, 0
1021, 2354.2909, 829.29129, 150
1022, 2354.2909, 829.29129, 300
1023, 2354.2909, 829.29129, 450
1024, 2354.2909, 829.29129, 600
1025, 2273.3167, 937.5, 0
1026, 2273.3167, 937.5, 75
1027, 2273.3167, 937.5, 150
1028, 2273.3167, 937.5, 225
1029, 2273.3167, 937.5, 300
1030, 2273.3167, 937.5, 375
1031, 2273.3167, 937.5, 450
1032, 2273.3167, 937.5, 525
1033, 2273.3167, 937.5, 600
1034, 2182.6077, 1041.6942, 0
1035, 2182.6077, 1041.6942, 150
1036, 2182.6077, 1041.6942, 300
1037, 2182.6077, 1041.6942, 450
1038, 2182.6077, 1041.6942, 600
1039, 2082.5525, 1141.4277, 0
1040, 2082.5525, 1141.4277, 75
1041, 2082.5525, 1141.4277, 150
1042, 2082.5525, 1141.4277, 225
1043, 2082.5525, 1141.4277, 300
1044, 2082.5525, 1141.4277, 375
1045, 2082.5525, 1141.4277, 450
1046, 2082.5525, 1141.4277, 525
1047, 2082.5525, 1141.4277, 600
1048, 1973.5795, 1236.2734, 0
1049, 1973.5795, 1236.2734, 150
1050, 1973.5795, 1236.2734, 300
1051, 1973.5795, 1236.2734, 450
1052, 1973.5795, 1236.2734, 600
1053, 1856.1553, 1325.8252, 0
1054, 1856.1553, 1325.8252, 75
1055, 1856.1553, 1325.8252, 150
1056, 1856.1553, 1325.8252, 225
1057, 1856.1553, 1325.8252, 300
1058, 1856.1553, 1325.8252, 375
1059, 1856.1553, 1325.8252, 450
1060, 1856.1553, 1325.8252, 525
1061, 1856.1553, 1325.8252, 600
1062, 1730.7828, 1409.6996, 0
1063, 1730.7828, 1409.6996, 150
1064, 1730.7828, 1409.6996, 300
1065, 1730.7828, 1409.6996, 450
1066, 1730.7828, 1409.6996, 600
1067, 1597.9988, 1487.5375, 0
1068, 1597.9988, 1487.5375, 75
1069, 1597.9988, 1487.5375, 150
1070, 1597.9988, 1487.5375, 225
1071, 1597.9988, 1487.5375, 300
1072, 1597.9988, 1487.5375, 375
1073, 1597.9988, 1487.5375, 450
1074, 1597.9988, 1487.5375, 525
1075, 1597.9988, 1487.5375, 600
1076, 1458.3719, 1559.0055, 0
1077, 1458.3719, 1559.0055, 150
1078, 1458.3719, 1559.0055, 300
1079, 1458.3719, 1559.0055, 450
1080, 1458.3719, 1559.0055, 600
1081, 1312.5, 1623.7976, 0
1082, 1312.5, 1623.7976, 75
1083, 1312.5, 1623.7976, 150
1084, 1312.5, 1623.7976, 225
1085, 1312.5, 1623.7976, 300
1086, 1312.5, 1623.7976, 375
1087, 1312.5, 1623.7976, 450
1088, 1312.5, 1623.7976, 525
1089, 1312.5, 1623.7976, 600
1090, 1161.0078, 1681.6364, 0
1091, 1161.0078, 1681.6364, 150
1092, 1161.0078, 1681.6364, 300
1093, 1161.0078, 1681.6364, 450
1094, 1161.0078, 1681.6364, 600
1095, 1004.544, 1732.2741, 0
1096, 1004.544, 1732.2741, 75
1097, 1004.544, 1732.2741, 150
1098, 1004.544, 1732.2741, 225
1099, 1004.544, 1732.2741, 300
1100, 1004.544, 1732.2741, 375
1101, 1004.544, 1732.2741, 450
1102, 1004.544, 1732.2741, 525
1103, 1004.544, 1732.2741, 600
1104, 843.7786, 1775.494, 0
1105, 843.7786, 1775.494, 150
1106, 843.7786, 1775.494, 300
1107, 843.7786, 1775.494, 450
1108, 843.7786, 1775.494, 600
1109, 679.39999, 1811.1109, 0
1110, 679.39999, 1811.1109, 75
1111, 679.39999, 1811.1109, 150
1112, 679.39999, 1811.1109, 225
1113, 679.39999, 1811.1109, 300
1114, 679.39999, 1811.1109, 375
1115, 679.39999, 1811.1109, 450
1116, 679.39999, 1811.1109, 525
1117, 679.39999, 1811.1109, 600
1118, 512.1121, 1838.9724, 0
1119, 512.1121, 1838.9724, 150
1120, 512.1121, 1838.9724, 300
1121, 512.1121, 1838.9724, 450
1122, 512.1121, 1838.9724, 600
1123, 342.63125, 1858.9591, 0
1124, 342.63125, 1858.9591, 75
1125, 342.63125, 1858.9591, 150
1126, 342.63125, 1858.9591, 225
1127, 342.63125, 1858.9591, 300
1128, 342.63125, 1858.9591, 375
1129, 342.63125, 1858.9591, 450
1130, 342.63125, 1858.9591, 525
1131, 342.63125, 1858.9591, 600
1132, 171.68321, 1870.9855, 0
1133, 171.68321, 1870.9855, 150
1134, 171.68321, 1870.9855, 300
1135, 171.68321, 1870.9855, 450
1136, 171.68321, 1870.9855, 600
1137, 1.6073489e-13, 1875, 0
1138, 1.6073489e-13, 1875, 75
1139, 1.6073489e-13, 1875, 150
1140, 1.6073489e-13, 1875, 225
1141, 1.6073489e-13, 1875, 300
1142, 1.6073489e-13, 1875, 375
1143, 1.6073489e-13, 1875, 450
1144, 1.6073489e-13, 1875, 525
1145, 1.6073489e-13, 1875, 600
1146, 2703.125, 0, 0
1147, 2703.125, 0, 150
1148, 2703.125, 0, 300
1149, 2703.125, 0, 450
1150, 2703.125, 0, 600
1151, 2679.9994, 259.01291, 0
1152, 2679.9994, 259.01291, 150
1153, 2679.9994, 259.01291, 300
1154, 2679.9994, 259.01291, 450
1155, 2679.9994, 259.01291, 600
1156, 2611.0182, 513.59404, 0
1157, 2611.0182, 513.59404, 150
1158, 2611.0182, 513.59404, 300
1159, 2611.0182, 513.59404, 450
1160, 2611.0182, 513.59404, 600
1161, 2497.3619, 759.38744, 0
1162, 2497.3619, 759.38744, 150
1163, 2497.3619, 759.38744, 300
1164, 2497.3619, 759.38744, 450
1165, 2497.3619, 759.38744, 600
1166, 2340.9749, 992.1875, 0
1167, 2340.9749, 992.1875, 150
1168, 2340.9749, 992.1875, 300
1169, 2340.9749, 992.1875, 450
1170, 2340.9749, 992.1875, 600
1171, 2144.5332, 1208.011, 0
1172, 2144.5332, 1208.011, 150
1173, 2144.5332, 1208.011, 300
1174, 2144.5332, 1208.011, 450
1175, 2144.5332, 1208.011, 600
1176, 1911.398, 1403.165, 0
1177, 1911.398, 1403.165, 150
1178, 1911.398, 1403.165, 300
1179, 1911.398, 1403.165, 450
1180, 1911.398, 1403.165, 600
1181, 1645.5582, 1574.3105, 0
1182, 1645.5582, 1574.3105, 150
1183, 1645.5582, 1574.3105, 300
1184, 1645.5582, 1574.3105, 450
1185, 1645.5582, 1574.3105, 600
1186, 1351.5625, 1718.5192, 0
1187, 1351.5625, 1718.5192, 150
1188, 1351.5625, 1718.5192, 300
1189, 1351.5625, 1718.5192, 450
1190, 1351.5625, 1718.5192, 600
1191, 1034.4412, 1833.3234, 0
1192, 1034.4412, 1833.3234, 150
1193, 1034.4412, 1833.3234, 300
1194, 1034.4412, 1833.3234, 450
1195, 1034.4412, 1833.3234, 600
1196, 699.62023, 1916.7591, 0
1197, 699.62023, 1916.7591, 150
1198, 699.62023, 1916.7591, 300
1199, 699.62023, 1916.7591, 450
1200, 699.62023, 1916.7591, 600
1201, 352.82861, 1967.3984, 0
1202, 352.82861, 1967.3984, 150
1203, 352.82861, 1967.3984, 300
1204, 352.82861, 1967.3984, 450
1205, 352.82861, 1967.3984, 600
1206, 1.6551867e-13, 1984.375, 0
1207, 1.6551867e-13, 1984.375, 150
1208, 1.6551867e-13, 1984.375, 300
1209, 1.6551867e-13, 1984.375, 450
1210, 1.6551867e-13, 1984.375, 600
1211, 2781.25, 0, 0
1212, 2781.25, 0, 75
1213, 2781.25, 0, 150
1214, 2781.25, 0, 225
1215, 2781.25, 0, 300
1216, 2781.25, 0, 375
1217, 2781.25, 0, 450
1218, 2781.25, 0, 525
1219, 2781.25, 0, 600
1220, 2775.2951, 136.9378, 0
1221, 2775.2951, 136.9378, 150
1222, 2775.2951, 136.9378, 300
1223, 2775.2951, 136.9378, 450
1224, 2775.2951, 136.9378, 600
1225, 2757.456, 273.28921, 0
1226, 2757.456, 273.28921, 75
1227, 2757.456, 273.28921, 150
1228, 2757.456, 273.28921, 225
1229, 2757.456, 273.28921, 300
1230, 2757.456, 273.28921, 375
1231, 2757.456, 273.28921, 450
1232, 2757.456, 273.28921, 525
1233, 2757.456, 273.28921, 600
1234, 2727.8091, 408.47036, 0
1235, 2727.8091, 408.47036, 150
1236, 2727.8091, 408.47036, 300
1237, 2727.8091, 408.47036, 450
1238, 2727.8091, 408.47036, 600
1239, 2686.4812, 541.90238, 0
1240, 2686.4812, 541.90238, 75
1241, 2686.4812, 541.90238, 150
1242, 2686.4812, 541.90238, 225
1243, 2686.4812, 541.90238, 300
1244, 2686.4812, 541.90238, 375
1245, 2686.4812, 541.90238, 450
1246, 2686.4812, 541.90238, 525
1247, 2686.4812, 541.90238, 600
1248, 2633.6494, 673.01388, 0
1249, 2633.6494, 673.01388, 150
1250, 2633.6494, 673.01388, 300
1251, 2633.6494, 673.01388, 450
1252, 2633.6494, 673.01388, 600
1253, 2569.5399, 801.24344, 0
1254, 2569.5399, 801.24344, 75
1255, 2569.5399, 801.24344, 150
1256, 2569.5399, 801.24344, 225
1257, 2569.5399, 801.24344, 300
1258, 2569.5399, 801.24344, 375
1259, 2569.5399, 801.24344, 450
1260, 2569.5399, 801.24344, 525
1261, 2569.5399, 801.24344, 600
1262, 2494.4273, 926.04195, 0
1263, 2494.4273, 926.04195, 150
1264, 2494.4273, 926.04195, 300
1265, 2494.4273, 926.04195, 450
1266, 2494.4273, 926.04195, 600
1267, 2408.6332, 1046.875, 0
1268, 2408.6332, 1046.875, 75
1269, 2408.6332, 1046.875, 150
1270, 2408.6332, 1046.875, 225
1271, 2408.6332, 1046.875, 300
1272, 2408.6332, 1046.875, 375
1273, 2408.6332, 1046.875, 450
1274, 2408.6332, 1046.875, 525
1275, 2408.6332, 1046.875, 600
1276, 2312.5249, 1163.2252, 0
1277, 2312.5249, 1163.2252, 150
1278, 2312.5249, 1163.2252, 300
1279, 2312.5249, 1163.2252, 450
1280, 2312.5249, 1163.2252, 600
1281, 2206.514, 1274.5942, 0
1282, 2206.514, 1274.5942, 75
1283, 2206.514, 1274.5942, 150
1284, 2206.514, 1274.5942, 225
1285, 2206.514, 1274.5942, 300
1286, 2206.514, 1274.5942, 375
1287, 2206.514, 1274.5942, 450
1288, 2206.514, 1274.5942, 525
1289, 2206.514, 1274.5942, 600
1290, 2091.0545, 1380.5053, 0
1291, 2091.0545, 1380.5053, 150
1292, 2091.0545, 1380.5053, 300
1293, 2091.0545, 1380.5053, 450
1294, 2091.0545, 1380.5053, 600
1295, 1966.6407, 1480.5048, 0
1296, 1966.6407, 1480.5048, 75
1297, 1966.6407, 1480.5048, 150
1298, 1966.6407, 1480.5048, 225
1299, 1966.6407, 1480.5048, 300
1300, 1966.6407, 1480.5048, 375
1301, 1966.6407, 1480.5048, 450
1302, 1966.6407, 1480.5048, 525
1303, 1966.6407, 1480.5048, 600
1304, 1833.8055, 1574.1646, 0
1305, 1833.8055, 1574.1646, 150
1306, 1833.8055, 1574.1646, 300
1307, 1833.8055, 1574.1646, 450
1308, 1833.8055, 1574.1646, 600
1309, 1693.1177, 1661.0836, 0
1310, 1693.1177, 1661.0836, 75
1311, 1693.1177, 1661.0836, 150
1312, 1693.1177, 1661.0836, 225
1313, 1693.1177, 1661.0836, 300
1314, 1693.1177, 1661.0836, 375
1315, 1693.1177, 1661.0836, 450
1316, 1693.1177, 1661.0836, 525
1317, 1693.1177, 1661.0836, 600
1318, 1545.1797, 1740.8895, 0
1319, 1545.1797, 1740.8895, 150
1320, 1545.1797, 1740.8895, 300
1321, 1545.1797, 1740.8895, 450
1322, 1545.1797, 1740.8895, 600
1323, 1390.625, 1813.2407, 0
1324, 1390.625, 1813.2407, 75
1325, 1390.625, 1813.2407, 150
1326, 1390.625, 1813.2407, 225
1327, 1390.625, 1813.2407, 300
1328, 1390.625, 1813.2407, 375
1329, 1390.625, 1813.2407, 450
1330, 1390.625, 1813.2407, 525
1331, 1390.625, 1813.2407, 600
1332, 1230.1154, 1877.8273, 0
1333, 1230.1154, 1877.8273, 150
1334, 1230.1154, 1877.8273, 300
1335, 1230.1154, 1877.8273, 450
1336, 1230.1154, 1877.8273, 600
1337, 1064.3383, 1934.3728, 0
1338, 1064.3383, 1934.3728, 75
1339, 1064.3383, 1934.3728, 150
1340, 1064.3383, 1934.3728, 225
1341, 1064.3383, 1934.3728, 300
1342, 1064.3383, 1934.3728, 375
1343, 1064.3383, 1934.3728, 450
1344, 1064.3383, 1934.3728, 525
1345, 1064.3383, 1934.3728, 600
1346, 894.00351, 1982.635, 0
1347, 894.00351, 1982.635, 150
1348, 894.00351, 1982.635, 300
1349, 894.00351, 1982.635, 450
1350, 894.00351, 1982.635, 600
1351, 719.84047, 2022.4072, 0
1352, 719.84047, 2022.4072, 75
1353, 719.84047, 2022.4072, 150
1354, 719.84047, 2022.4072, 225
1355, 719.84047, 2022.4072, 300
1356, 719.84047, 2022.4072, 375
1357, 719.84047, 2022.4072, 450
1358, 719.84047, 2022.4072, 525
1359, 719.84047, 2022.4072, 600
1360, 542.59496, 2053.5192, 0
1361, 542.59496, 2053.5192, 150
1362, 542.59496, 2053.5192, 300
1363, 542.59496, 2053.5192, 450
1364, 542.59496, 2053.5192, 600
1365, 363.02597, 2075.8377, 0
1366, 363.02597, 2075.8377, 75
1367, 363.02597, 2075.8377, 150
1368, 363.02597, 2075.8377, 225
1369, 363.02597, 2075.8377, 300
1370, 363.02597, 2075.8377, 375
1371, 363.02597, 2075.8377, 450
1372, 363.02597, 2075.8377, 525
1373, 363.02597, 2075.8377, 600
1374, 181.90245, 2089.2671, 0
1375, 181.90245, 2089.2671, 150
1376, 181.90245, 2089.2671, 300
1377, 181.90245, 2089.2671, 450
1378, 181.90245, 2089.2671, 600
1379, 1.7030245e-13, 2093.75, 0
1380, 1.7030245e-13, 2093.75, 75
1381, 1.7030245e-13, 2093.75, 150
1382, 1.7030245e-13, 2093.75, 225
1383, 1.7030245e-13, 2093.75, 300
1384, 1.7030245e-13, 2093.75, 375
1385, 1.7030245e-13, 2093.75, 450
1386, 1.7030245e-13, 2093.75, 525
1387, 1.7030245e-13, 2093.75, 600
1388, 2859.375, 0, 0
1389, 2859.375, 0, 150
1390, 2859.375, 0, 300
1391, 2859.375, 0, 450
1392, 2859.375, 0, 600
1393, 2834.9127, 287.56552, 0
1394, 2834.9127, 287.56552, 150
1395, 2834.9127, 287.56552, 300
1396, 2834.9127, 287.56552, 450
1397, 2834.9127, 287.56552, 600
1398, 2761.9442, 570.21071, 0
1399, 2761.9442, 570.21071, 150
1400, 2761.9442, 570.21071, 300
1401, 2761.9442, 570.21071, 450
1402, 2761.9442, 570.21071, 600
1403, 2641.718, 843.09944, 0
1404, 2641.718, 843.09944, 150
1405, 2641.718, 843.09944, 300
1406, 2641.718, 843.09944, 450
1407, 2641.718, 843.09944, 600
1408, 2476.2914, 1101.5625, 0
1409, 2476.2914, 1101.5625, 150
1410, 2476.2914, 1101.5625, 300
1411, 2476.2914, 1101.5625, 450
1412, 2476.2914, 1101.5625, 600
1413, 2268.4947, 1341.1775, 0
1414, 2268.4947, 1341.1775, 150
1415, 2268.4947, 1341.1775, 300
1416, 2268.4947, 1341.1775, 450
1417, 2268.4947, 1341.1775, 600
1418, 2021.8835, 1557.8446, 0
1419, 2021.8835, 1557.8446, 150
1420, 2021.8835, 1557.8446, 300
1421, 2021.8835, 1557.8446, 450
1422, 2021.8835, 1557.8446, 600
1423, 1740.6772, 1747.8566, 0
1424, 1740.6772, 1747.8566, 150
1425, 1740.6772, 1747.8566, 300
1426, 1740.6772, 1747.8566, 450
1427, 1740.6772, 1747.8566, 600
1428, 1429.6875, 1907.9622, 0
1429, 1429.6875, 1907.9622, 150
1430, 1429.6875, 1907.9622, 300
1431, 1429.6875, 1907.9622, 450
1432, 1429.6875, 1907.9622, 600
1433, 1094.2354, 2035.4221, 0
1434, 1094.2354, 2035.4221, 150
1435, 1094.2354, 2035.4221, 300
1436, 1094.2354, 2035.4221, 450
1437, 1094.2354, 2035.4221, 600
1438, 740.06071, 2128.0553, 0
1439, 740.06071, 2128.0553, 150
1440, 740.06071, 2128.0553, 300
1441, 740.06071, 2128.0553, 450
1442, 740.06071, 2128.0553, 600
1443, 373.22333, 2184.277, 0
1444, 373.22333, 2184.277, 150
1445, 373.22333, 2184.277, 300
1446, 373.22333, 2184.277, 450
1447, 373.22333, 2184.277, 600
1448, 1.7508622e-13, 2203.125, 0
1449, 1.7508622e-13, 2203.125, 150
1450, 1.7508622e-13, 2203.125, 300
1451, 1.7508622e-13, 2203.125, 450
1452, 1.7508622e-13, 2203.125, 600
1453, 2937.5, 0, 0
1454, 2937.5, 0, 75
1455, 2937.5, 0, 150
1456, 2937.5, 0, 225
1457, 2937.5, 0, 300
1458, 2937.5, 0, 375
1459, 2937.5, 0, 450
1460, 2937.5, 0, 525
1461, 2937.5, 0, 600
1462, 2931.2106, 151.24474, 0
1463, 2931.2106, 151.24474, 150
1464, 2931.2106, 151.24474, 300
1465, 2931.2106, 151.24474, 450
1466, 2931.2106, 151.24474, 600
1467, 2912.3693, 301.84182, 0
1468, 2912.3693, 301.84182, 75
1469, 2912.3693, 301.84182, 150
1470, 2912.3693, 301.84182, 225
1471, 2912.3693, 301.84182, 300
1472, 2912.3693, 301.84182, 375
1473, 2912.3693, 301.84182, 450
1474, 2912.3693, 301.84182, 525
1475, 2912.3693, 301.84182, 600
1476, 2881.0568, 451.14637, 0
1477, 2881.0568, 451.14637, 150
1478, 2881.0568, 451.14637, 300
1479, 2881.0568, 451.14637, 450
1480, 2881.0568, 451.14637, 600
1481, 2837.4071, 598.51904, 0
1482, 2837.4071, 598.51904, 75
1483, 2837.4071, 598.51904, 150
1484, 2837.4071, 598.51904, 225
1485, 2837.4071, 598.51904, 300
1486, 2837.4071, 598.51904, 375
1487, 2837.4071, 598.51904, 450
1488, 2837.4071, 598.51904, 525
1489, 2837.4071, 598.51904, 600
1490, 2781.6073, 743.32876, 0
1491, 2781.6073, 743.32876, 150
1492, 2781.6073, 743.32876, 300
1493, 2781.6073, 743.32876, 450
1494, 2781.6073, 743.32876, 600
1495, 2713.8961, 884.95544, 0
1496, 2713.8961, 884.95544, 75
1497, 2713.8961, 884.95544, 150
1498, 2713.8961, 884.95544, 225
1499, 2713.8961, 884.95544, 300
1500, 2713.8961, 884.95544, 375
1501, 2713.8961, 884.95544, 450
1502, 2713.8961, 884.95544, 525
1503, 2713.8961, 884.95544, 600
1504, 2634.5637, 1022.7926, 0
1505, 2634.5637, 1022.7926, 150
1506, 2634.5637, 1022.7926, 300
1507, 2634.5637, 1022.7926, 450
1508, 2634.5637, 1022.7926, 600
1509, 2543.9496, 1156.25, 0
1510, 2543.9496, 1156.25, 75
1511, 2543.9496, 1156.25, 150
1512, 2543.9496, 1156.25, 225
1513, 2543.9496, 1156.25, 300
1514, 2543.9496, 1156.25, 375
1515, 2543.9496, 1156.25, 450
1516, 2543.9496, 1156.25, 525
1517, 2543.9496, 1156.25, 600
1518, 2442.442, 1284.7562, 0
1519, 2442.442, 1284.7562, 150
1520, 2442.442, 1284.7562, 300
1521, 2442.442, 1284.7562, 450
1522, 2442.442, 1284.7562, 600
1523, 2330.4754, 1407.7608, 0
1524, 2330.4754, 1407.7608, 75
1525, 2330.4754, 1407.7608, 150
1526, 2330.4754, 1407.7608, 225
1527, 2330.4754, 1407.7608, 300
1528, 2330.4754, 1407.7608, 375
1529, 2330.4754, 1407.7608, 450
1530, 2330.4754, 1407.7608, 525
1531, 2330.4754, 1407.7608, 600
1532, 2208.5294, 1524.7372, 0
1533, 2208.5294, 1524.7372, 150
1534, 2208.5294, 1524.7372, 300
1535, 2208.5294, 1524.7372, 450
1536, 2208.5294, 1524.7372, 600
1537, 2077.1262, 1635.1844, 0
1538, 2077.1262, 1635.1844, 75
1539, 2077.1262, 1635.1844, 150
1540, 2077.1262, 1635.1844, 225
1541, 2077.1262, 1635.1844, 300
1542, 2077.1262, 1635.1844, 375
1543, 2077.1262, 1635.1844, 450
1544, 2077.1262, 1635.1844, 525
1545, 2077.1262, 1635.1844, 600
1546, 1936.8283, 1738.6296, 0
1547, 1936.8283, 1738.6296, 150
1548, 1936.8283, 1738.6296, 300
1549, 1936.8283, 1738.6296, 450
1550, 1936.8283, 1738.6296, 600
1551, 1788.2367, 1834.6296, 0
1552, 1788.2367, 1834.6296, 75
1553, 1788.2367, 1834.6296, 150
1554, 1788.2367, 1834.6296, 225
1555, 1788.2367, 1834.6296, 300
1556, 1788.2367, 1834.6296, 375
1557, 1788.2367, 1834.6296, 450
1558, 1788.2367, 1834.6296, 525
1559, 1788.2367, 1834.6296, 600
1560, 1631.9876, 1922.7735, 0
1561, 1631.9876, 1922.7735, 150
1562, 1631.9876, 1922.7735, 300
1563, 1631.9876, 1922.7735, 450
1564, 1631.9876, 1922.7735, 600
1565, 1468.75, 2002.6837, 0
1566, 1468.75, 2002.6837, 75
1567, 1468.75, 2002.6837, 150
1568, 1468.75, 2002.6837, 225
1569, 1468.75, 2002.6837, 300
1570, 1468.75, 2002.6837, 375
1571, 1468.75, 2002.6837, 450
1572, 1468.75, 2002.6837, 525
1573, 1468.75, 2002.6837, 600
1574, 1299.223, 2074.0182, 0
1575, 1299.223, 2074.0182, 150
1576, 1299.223, 2074.0182, 300
1577, 1299.223, 2074.0182, 450
1578, 1299.223, 2074.0182, 600
1579, 1124.1326, 2136.4714, 0
1580, 1124.1326, 2136.4714, 75
1581, 1124.1326, 2136.4714, 150
1582, 1124.1326, 2136.4714, 225
1583, 1124.1326, 2136.4714, 300
1584, 1124.1326, 2136.4714, 375
1585, 1124.1326, 2136.4714, 450
1586, 1124.1326, 2136.4714, 525
1587, 1124.1326, 2136.4714, 600
1588, 944.22843, 2189.7759, 0
1589, 944.22843, 2189.7759, 150
1590, 944.22843, 2189.7759, 300
1591, 944.22843, 2189.7759, 450
1592, 944.22843, 2189.7759, 600
1593, 760.28094, 2233.7035, 0
1594, 760.28094, 2233.7035, 75
1595, 760.28094, 2233.7035, 150
1596, 760.28094, 2233.7035, 225
1597, 760.28094, 2233.7035, 300
1598, 760.28094, 2233.7035, 375
1599, 760.28094, 2233.7035, 450
1600, 760.28094, 2233.7035, 525
1601, 760.28094, 2233.7035, 600
1602, 573.07782, 2268.066, 0
1603, 573.07782, 2268.066, 150
1604, 573.07782, 2268.066, 300
1605, 573.07782, 2268.066, 450
1606, 573.07782, 2268.066, 600
1607, 383.42069, 2292.7162, 0
1608, 383.42069, 2292.7162, 75
1609, 383.42069, 2292.7162, 150
1610, 383.42069, 2292.7162, 225
1611, 383.42069, 2292.7162, 300
1612, 383.42069, 2292.7162, 375
1613, 383.42069, 2292.7162, 450
1614, 383.42069, 2292.7162, 525
1615, 383.42069, 2292.7162, 600
1616, 192.12169, 2307.5488, 0
1617, 192.12169, 2307.5488, 150
1618, 192.12169, 2307.5488, 300
1619, 192.12169, 2307.5488, 450
1620, 192.12169, 2307.5488, 600
1621, 1.7987e-13, 2312.5, 0
1622, 1.7987e-13, 2312.5, 75
1623, 1.7987e-13, 2312.5, 150
1624, 1.7987e-13, 2312.5, 225
1625, 1.7987e-13, 2312.5, 300
1626, 1.7987e-13, 2312.5, 375
1627, 1.7987e-13, 2312.5, 450
1628, 1.7987e-13, 2312.5, 525
1629, 1.7987e-13, 2312.5, 600
1630, 3015.625, 0, 0
1631, 3015.625, 0, 150
1632, 3015.625, 0, 300
1633, 3015.625, 0, 450
1634, 3015.625, 0, 600
1635, 2989.8259, 316.11812, 0
1636, 2989.8259, 316.11812, 150
1637, 2989.8259, 316.11812, 300
1638, 2989.8259, 316.11812, 450
1639, 2989.8259, 316.11812, 600
1640, 2912.8701, 626.82737, 0
1641, 2912.8701, 626.82737, 150
1642, 2912.8701, 626.82737, 300
1643, 2912.8701, 626.82737, 450
1644, 2912.8701, 626.82737, 600
1645, 2786.0742, 926.81144, 0
1646, 2786.0742, 926.81144, 150
1647, 2786.0742, 926.81144, 300
1648, 2786.0742, 926.81144, 450
1649, 2786.0742, 926.81144, 600
1650, 2611.6079, 1210.9375, 0
1651, 2611.6079, 1210.9375, 150
1652, 2611.6079, 1210.9375, 300
1653, 2611.6079, 1210.9375, 450
1654, 2611.6079, 1210.9375, 600
1655, 2392.4562, 1474.3441, 0
1656, 2392.4562, 1474.3441, 150
1657, 2392.4562, 1474.3441, 300
1658, 2392.4562, 1474.3441, 450
1659, 2392.4562, 1474.3441, 600
1660, 2132.3689, 1712.5242, 0
1661, 2132.3689, 1712.5242, 150
1662, 2132.3689, 1712.5242, 300
1663, 2132.3689, 1712.5242, 450
1664, 2132.3689, 1712.5242, 600
1665, 1835.7962, 1921.4026, 0
1666, 1835.7962, 1921.4026, 150
1667, 1835.7962, 1921.4026, 300
1668, 1835.7962, 1921.4026, 450
1669, 1835.7962, 1921.4026, 600
1670, 1507.8125, 2097.4053, 0
1671, 1507.8125, 2097.4053, 150
1672, 1507.8125, 2097.4053, 300
1673, 1507.8125, 2097.4053, 450
1674, 1507.8125, 2097.4053, 600
1675, 1154.0297, 2237.5207, 0
1676, 1154.0297, 2237.5207, 150
1677, 1154.0297, 2237.5207, 300
1678, 1154.0297, 2237.5207, 450
1679, 1154.0297, 2237.5207, 600
1680, 780.50118, 2339.3516, 0
1681, 780.50118, 2339.3516, 150
1682, 780.50118, 2339.3516, 300
1683, 780.50118, 2339.3516, 450
1684, 780.50118, 2339.3516, 600
1685, 393.61805, 2401.1555, 0
1686, 393.61805, 2401.1555, 150
1687, 393.61805, 2401.1555, 300
1688, 393.61805, 2401.1555, 450
1689, 393.61805, 2401.1555, 600
1690, 1.8465378e-13, 2421.875, 0
1691, 1.8465378e-13, 2421.875, 150
1692, 1.8465378e-13, 2421.875, 300
1693, 1.8465378e-13, 2421.875, 450
1694, 1.8465378e-13, 2421.875, 600
1695, 3093.75, 0, 0
1696, 3093.75, 0, 75
1697, 3093.75, 0, 150
1698, 3093.75, 0, 225
1699, 3093.75, 0, 300
1700, 3093.75, 0, 375
1701, 3093.75, 0, 450
1702, 3093.75, 0, 525
1703, 3093.75, 0, 600
1704, 3087.126, 165.55167, 0
1705, 3087.126, 165.55167, 150
1706, 3087.126, 165.55167, 300
1707, 3087.126, 165.55167, 450
1708, 3087.126, 165.55167, 600
1709, 3067.2825, 330.39442, 0
1710, 3067.2825, 330.39442, 75
1711, 3067.2825, 330.39442, 150
1712, 3067.2825, 330.39442, 225
1713, 3067.2825, 330.39442, 300
1714, 3067.2825, 330.39442, 375
1715, 3067.2825, 330.39442, 450
1716, 3067.2825, 330.39442, 525
1717, 3067.2825, 330.39442, 600
1718, 3034.3045, 493.82238, 0
1719, 3034.3045, 493.82238, 150
1720, 3034.3045, 493.82238, 300
1721, 3034.3045, 493.82238, 450
1722, 3034.3045, 493.82238, 600
1723, 2988.333, 655.13571, 0
1724, 2988.333, 655.13571, 75
1725, 2988.333, 655.13571, 150
1726, 2988.333, 655.13571, 225
1727, 2988.333, 655.13571, 300
1728, 2988.333, 655.13571, 375
1729, 2988.333, 655.13571, 450
1730, 2988.333, 655.13571, 525
1731, 2988.333, 655.13571, 600
1732, 2929.5651, 813.64365, 0
1733, 2929.5651, 813.64365, 150
1734, 2929.5651, 813.64365, 300
1735, 2929.5651, 813.64365, 450
1736, 2929.5651, 813.64365, 600
1737, 2858.2523, 968.66744, 0
1738, 2858.2523, 968.66744, 75
1739, 2858.2523, 968.66744, 150
1740, 2858.2523, 968.66744, 225
1741, 2858.2523, 968.66744, 300
1742, 2858.2523, 968.66744, 375
1743, 2858.2523, 968.66744, 450
1744, 2858.2523, 968.66744, 525
1745, 2858.2523, 968.66744, 600
1746, 2774.7, 1119.5432, 0
1747, 2774.7, 1119.5432, 150
1748, 2774.7, 1119.5432, 300
1749, 2774.7, 1119.5432, 450
1750, 2774.7, 1119.5432, 600
1751, 2679.2661, 1265.625, 0
1752, 2679.2661, 1265.625, 75
1753, 2679.2661, 1265.625, 150
1754, 2679.2661, 1265.625, 225
1755, 2679.2661, 1265.625, 300
1756, 2679.2661, 1265.625, 375
1757, 2679.2661, 1265.625, 450
1758, 2679.2661, 1265.625, 525
1759, 2679.2661, 1265.625, 600
1760, 2572.3591, 1406.2872, 0
1761, 2572.3591, 1406.2872, 150
1762, 2572.3591, 1406.2872, 300
1763, 2572.3591, 1406.2872, 450
1764, 2572.3591, 1406.2872, 600
1765, 2454.4369, 1540.9274, 0
1766, 2454.4369, 1540.9274, 75
1767, 2454.4369, 1540.9274, 150
1768, 2454.4369, 1540.9274, 225
1769, 2454.4369, 1540.9274, 300
1770, 2454.4369, 1540.9274, 375
1771, 2454.4369, 1540.9274, 450
1772, 2454.4369, 1540.9274, 525
1773, 2454.4369, 1540.9274, 600
1774, 2326.0044, 1668.9691, 0
1775, 2326.0044, 1668.9691, 150
1776, 2326.0044, 1668.9691, 300
1777, 2326.0044, 1668.9691, 450
1778, 2326.0044, 1668.9691, 600
1779, 2187.6116, 1789.864, 0
1780, 2187.6116, 1789.864, 75
1781, 2187.6116, 1789.864, 150
1782, 2187.6116, 1789.864, 225
1783, 2187.6116, 1789.864, 300
1784, 2187.6116, 1789.864, 375
1785, 2187.6116, 1789.864, 450
1786, 2187.6116, 1789.864, 525
1787, 2187.6116, 1789.864, 600
1788, 2039.8511, 1903.0945, 0
1789, 2039.8511, 1903.0945, 150
1790, 2039.8511, 1903.0945, 300
1791, 2039.8511, 1903.0945, 450
1792, 2039.8511, 1903.0945, 600
1793, 1883.3557, 2008.1756, 0
1794, 1883.3557, 2008.1756, 75
1795, 1883.3557, 2008.1756, 150
1796, 1883.3557, 2008.1756, 225
1797, 1883.3557, 2008.1756, 300
1798, 1883.3557, 2008.1756, 375
1799, 1883.3557, 2008.1756, 450
1800, 1883.3557, 2008.1756, 525
1801, 1883.3557, 2008.1756, 600
1802, 1718.7954, 2104.6575, 0
1803, 1718.7954, 2104.6575, 150
1804, 1718.7954, 2104.6575, 300
1805, 1718.7954, 2104.6575, 450
1806, 1718.7954, 2104.6575, 600
1807, 1546.875, 2192.1268, 0
1808, 1546.875, 2192.1268, 75
1809, 1546.875, 2192.1268, 150
1810, 1546.875, 2192.1268, 225
1811, 1546.875, 2192.1268, 300
1812, 1546.875, 2192.1268, 375
1813, 1546.875, 2192.1268, 450
1814, 1546.875, 2192.1268, 525
1815, 1546.875, 2192.1268, 600
1816, 1368.3306, 2270.2091, 0
1817, 1368.3306, 2270.2091, 150
1818, 1368.3306, 2270.2091, 300
1819, 1368.3306, 2270.2091, 450
1820, 1368.3306, 2270.2091, 600
1821, 1183.9269, 2338.5701, 0
1822, 1183.9269, 2338.5701, 75
1823, 1183.9269, 2338.5701, 150
1824, 1183.9269, 2338.5701, 225
1825, 1183.9269, 2338.5701, 300
1826, 1183.9269, 2338.5701, 375
1827, 1183.9269, 2338.5701, 450
1828, 1183.9269, 2338.5701, 525
1829, 1183.9269, 2338.5701, 600
1830, 994.45335, 2396.9169, 0
1831, 994.45335, 2396.9169, 150
1832, 994.45335, 2396.9169, 300
1833, 994.45335, 2396.9169, 450
1834, 994.45335, 2396.9169, 600
1835, 800.72142, 2444.9997, 0
1836, 800.72142, 2444.9997, 75
1837, 800.72142, 2444.9997, 150
1838, 800.72142, 2444.9997, 225
1839, 800.72142, 2444.9997, 300
1840, 800.72142, 2444.9997, 375
1841, 800.72142, 2444.9997, 450
1842, 800.72142, 2444.9997, 525
1843, 800.72142, 2444.9997, 600
1844, 603.56068, 2482.6127, 0
1845, 603.56068, 2482.6127, 150
1846, 603.56068, 2482.6127, 300
1847, 603.56068, 2482.6127, 450
1848, 603.56068, 2482.6127, 600
1849, 403.81541, 2509.5948, 0
1850, 403.81541, 2509.5948, 75
1851, 403.81541, 2509.5948, 150
1852, 403.81541, 2509.5948, 225
1853, 403.81541, 2509.5948, 300
1854, 403.81541, 2509.5948, 375
1855, 403.81541, 2509.5948, 450
1856, 403.81541, 2509.5948, 525
1857, 403.81541, 2509.5948, 600
1858, 202.34093, 2525.8304, 0
1859, 202.34093, 2525.8304, 150
1860, 202.34093, 2525.8304, 300
1861, 202.34093, 2525.8304, 450
1862, 202.34093, 2525.8304, 600
1863, 1.8943755e-13, 2531.25, 0
1864, 1.8943755e-13, 2531.25, 75
1865, 1.8943755e-13, 2531.25, 150
1866, 1.8943755e-13, 2531.25, 225
1867, 1.8943755e-13, 2531.25, 300
1868, 1.8943755e-13, 2531.25, 375
1869, 1.8943755e-13, 2531.25, 450
1870, 1.8943755e-13, 2531.25, 525
1871, 1.8943755e-13, 2531.25, 600
1872, 3171.875, 0, 0
1873, 3171.875, 0, 150
1874, 3171.875, 0, 300
1875, 3171.875, 0, 450
1876, 3171.875, 0, 600
1877, 3144.7392, 344.67073, 0
1878, 3144.7392, 344.67073, 150
1879, 3144.7392, 344.67073, 300
1880, 3144.7392, 344.67073, 450
1881, 3144.7392, 344.67073, 600
1882, 3063.796, 683.44404, 0
1883, 3063.796, 683.44404, 150
1884, 3063.796, 683.44404, 300
1885, 3063.796, 683.44404, 450
1886, 3063.796, 683.44404, 600
1887, 2930.4304, 1010.5234, 0
1888, 2930.4304, 1010.5234, 150
1889, 2930.4304, 1010.5234, 300
1890, 2930.4304, 1010.5234, 450
1891, 2930.4304, 1010.5234, 600
1892, 2746.9243, 1320.3125, 0
1893, 2746.9243, 1320.3125, 150
1894, 2746.9243, 1320.3125, 300
1895, 2746.9243, 1320.3125, 450
1896, 2746.9243, 1320.3125, 600
1897, 2516.4176, 1607.5106, 0
1898, 2516.4176, 1607.5106, 150
1899, 2516.4176, 1607.5106, 300
1900, 2516.4176, 1607.5106, 450
1901, 2516.4176, 1607.5106, 600
1902, 2242.8543, 1867.2038, 0
1903, 2242.8543, 1867.2038, 150
1904, 2242.8543, 1867.2038, 300
1905, 2242.8543, 1867.2038, 450
1906, 2242.8543, 1867.2038, 600
1907, 1930.9152, 2094.9487, 0
1908, 1930.9152, 2094.9487, 150
1909, 1930.9152, 2094.9487, 300
1910, 1930.9152, 2094.9487, 450
1911, 1930.9152, 2094.9487, 600
1912, 1585.9375, 2286.8483, 0
1913, 1585.9375, 2286.8483, 150
1914, 1585.9375, 2286.8483, 300
1915, 1585.9375, 2286.8483, 450
1916, 1585.9375, 2286.8483, 600
1917, 1213.824, 2439.6194, 0
1918, 1213.824, 2439.6194, 150
1919, 1213.824, 2439.6194, 300
1920, 1213.824, 2439.6194, 450
1921, 1213.824, 2439.6194, 600
1922, 820.94166, 2550.6479, 0
1923, 820.94166, 2550.6479, 150
1924, 820.94166, 2550.6479, 300
1925, 820.94166, 2550.6479, 450
1926, 820.94166, 2550.6479, 600
1927, 414.01277, 2618.0341, 0
1928, 414.01277, 2618.0341, 150
1929, 414.01277, 2618.0341, 300
1930, 414.01277, 2618.0341, 450
1931, 414.01277, 2618.0341, 600
1932, 1.9422133e-13, 2640.625, 0
1933, 1.9422133e-13, 2640.625, 150
1934, 1.9422133e-13, 2640.625, 300
1935, 1.9422133e-13, 2640.625, 450
1936, 1.9422133e-13, 2640.625, 600
1937, 3250, 0, 0
1938, 3250, 0, 75
1939, 3250, 0, 150
1940, 3250, 0, 225
1941, 3250, 0, 300
1942, 3250, 0, 375
1943, 3250, 0, 450
1944, 3250, 0, 525
1945, 3250, 0, 600
1946, 3243.0415, 179.85861, 0
1947, 3243.0415, 179.85861, 150
1948, 3243.0415, 179.85861, 300
1949, 3243.0415, 179.85861, 450
1950, 3243.0415, 179.85861, 600
1951, 3222.1958, 358.94703, 0
1952, 3222.1958, 358.94703, 75
1953, 3222.1958, 358.94703, 150
1954, 3222.1958, 358.94703, 225
1955, 3222.1958, 358.94703, 300
1956, 3222.1958, 358.94703, 375
1957, 3222.1958, 358.94703, 450
1958, 3222.1958, 358.94703, 525
1959, 3222.1958, 358.94703, 600
1960, 3187.5522, 536.49839, 0
1961, 3187.5522, 536.49839, 150
1962, 3187.5522, 536.49839, 300
1963, 3187.5522, 536.49839, 450
1964, 3187.5522, 536.49839, 600
1965, 3139.2589, 711.75237, 0
1966, 3139.2589, 711.75237, 75
1967, 3139.2589, 711.75237, 150
1968, 3139.2589, 711.75237, 225
1969, 3139.2589, 711.75237, 300
1970, 3139.2589, 711.75237, 375
1971, 3139.2589, 711.75237, 450
1972, 3139.2589, 711.75237, 525
1973, 3139.2589, 711.75237, 600
1974, 3077.5229, 883.95853, 0
1975, 3077.5229, 883.95853, 150
1976, 3077.5229, 883.95853, 300
1977, 3077.5229, 883.95853, 450
1978, 3077.5229, 883.95853, 600
1979, 3002.6085, 1052.3794, 0
1980, 3002.6085, 1052.3794, 75
1981, 3002.6085, 1052.3794, 150
1982, 3002.6085, 1052.3794, 225
1983, 3002.6085, 1052.3794, 300
1984, 3002.6085, 1052.3794, 375
1985, 3002.6085, 1052.3794, 450
1986, 3002.6085, 1052.3794, 525
1987, 3002.6085, 1052.3794, 600
1988, 2914.8364, 1216.2939, 0
1989, 2914.8364, 1216.2939, 150
1990, 2914.8364, 1216.2939, 300
1991, 2914.8364, 1216.2939, 450
1992, 2914.8364, 1216.2939, 600
1993, 2814.5826, 1375, 0
1994, 2814.5826, 1375, 75
1995, 2814.5826, 1375, 150
1996, 2814.5826, 1375, 225
1997, 2814.5826, 1375, 300
1998, 2814.5826, 1375, 375
1999, 2814.5826, 1375, 450
2000, 2814.5826, 1375, 525
2001, 2814.5826, 1375, 600
2002, 2702.2762, 1527.8181, 0
2003, 2702.2762, 1527.8181, 150
2004, 2702.2762, 1527.8181, 300
2005, 2702.2762, 1527.8181, 450
2006, 2702.2762, 1527.8181, 600
2007, 2578.3984, 1674.0939, 0
2008, 2578.3984, 1674.0939, 75
2009, 2578.3984, 1674.0939, 150
2010, 2578.3984, 1674.0939, 225
2011, 2578.3984, 1674.0939, 300
2012, 2578.3984, 1674.0939, 375
2013, 2578.3984, 1674.0939, 450
2014, 2578.3984, 1674.0939, 525
2015, 2578.3984, 1674.0939, 600
2016, 2443.4794, 1813.201, 0
2017, 2443.4794, 1813.201, 150
2018, 2443.4794, 1813.201, 300
2019, 2443.4794, 1813.201, 450
2020, 2443.4794, 1813.201, 600
2021, 2298.097, 1944.5436, 0
2022, 2298.097, 1944.5436, 75
2023, 2298.097, 1944.5436, 150
2024, 2298.097, 1944.5436, 225
2025, 2298.097, 1944.5436, 300
2026, 2298.097, 1944.5436, 375
2027, 2298.097, 1944.5436, 450
2028, 2298.097, 1944.5436, 525
2029, 2298.097, 1944.5436, 600
2030, 2142.8739, 2067.5595, 0
2031, 2142.8739, 2067.5595, 150
2032, 2142.8739, 2067.5595, 300
2033, 2142.8739, 2067.5595, 450
2034, 2142.8739, 2067.5595, 600
2035, 1978.4746, 2181.7217, 0
2036, 1978.4746, 2181.7217, 75
2037, 1978.4746, 2181.7217, 150
2038, 1978.4746, 2181.7217, 225
2039, 1978.4746, 2181.7217, 300
2040, 1978.4746, 2181.7217, 375
2041, 1978.4746, 2181.7217, 450
2042, 1978.4746, 2181.7217, 525
2043, 1978.4746, 2181.7217, 600
2044, 1805.6033, 2286.5414, 0
2045, 1805.6033, 2286.5414, 150
2046, 1805.6033, 2286.5414, 300
2047, 1805.6033, 2286.5414, 450
2048, 1805.6033, 2286.5414, 600
2049, 1625, 2381.5699, 0
2050, 1625, 2381.5699, 75
2051, 1625, 2381.5699, 150
2052, 1625, 2381.5699, 225
2053, 1625, 2381.5699, 300
2054, 1625, 2381.5699, 375
2055, 1625, 2381.5699, 450
2056, 1625, 2381.5699, 525
2057, 1625, 2381.5699, 600
2058, 1437.4382, 2466.4, 0
2059, 1437.4382, 2466.4, 150
2060, 1437.4382, 2466.4, 300
2061, 1437.4382, 2466.4, 450
2062, 1437.4382, 2466.4, 600
2063, 1243.7212, 2540.6687, 0
2064, 1243.7212, 2540.6687, 75
2065, 1243.7212, 2540.6687, 150
2066, 1243.7212, 2540.6687, 225
2067, 1243.7212, 2540.6687, 300
2068, 1243.7212, 2540.6687, 375
2069, 1243.7212, 2540.6687, 450
2070, 1243.7212, 2540.6687, 525
2071, 1243.7212, 2540.6687, 600
2072, 1044.6783, 2604.0579, 0
2073, 1044.6783, 2604.0579, 150
2074, 1044.6783, 2604.0579, 300
2075, 1044.6783, 2604.0579, 450
2076, 1044.6783, 2604.0579, 600
2077, 841.1619, 2656.296, 0
2078, 841.1619, 2656.296, 75
2079, 841.1619, 2656.296, 150
2080, 841.1619, 2656.296, 225
2081, 841.1619, 2656.296, 300
2082, 841.1619, 2656.296, 375
2083, 841.1619, 2656.296, 450
2084, 841.1619, 2656.296, 525
2085, 841.1619, 2656.296, 600
2086, 634.04355, 2697.1595, 0
2087, 634.04355, 2697.1595, 150
2088, 634.04355, 2697.1595, 300
2089, 634.04355, 2697.1595, 450
2090, 634.04355, 2697.1595, 600
2091, 424.21012, 2726.4734, 0
2092, 424.21012, 2726.4734, 75
2093, 424.21012, 2726.4734, 150
2094, 424.21012, 2726.4734, 225
2095, 424.21012, 2726.4734, 300
2096, 424.21012, 2726.4734, 375
2097, 424.21012, 2726.4734, 450
2098, 424.21012, 2726.4734, 525
2099, 424.21012, 2726.4734, 600
2100, 212.56017, 2744.112, 0
2101, 212.56017, 2744.112, 150
2102, 212.56017, 2744.112, 300
2103, 212.56017, 2744.112, 450
2104, 212.56017, 2744.112, 600
2105, 1.990051e-13, 2750, 0
2106, 1.990051e-13, 2750, 75
2107, 1.990051e-13, 2750, 150
2108, 1.990051e-13, 2750, 225
2109, 1.990051e-13, 2750, 300
2110, 1.990051e-13, 2750, 375
2111, 1.990051e-13, 2750, 450
2112, 1.990051e-13, 2750, 525
2113, 1.990051e-13, 2750, 600
*ELEMENT, TYPE=C3D20, ELSET=PLATE
1, 1, 243, 257, 15, 3, 245, 259, 17, 178, 252, 183, 10, 179, 253, 184, 11, 2, 244, 258, 16
2, 3, 245, 259, 17, 5, 247, 261, 19, 179, 253, 184, 11, 180, 254, 185, 12, 4, 246, 260, 18
3, 5, 247, 261, 19, 7, 249, 263, 21, 180, 254, 185, 12, 181, 255, 186, 13, 6, 248, 262, 20
4, 7, 249, 263, 21, 9, 251, 265, 23, 181, 255, 186, 13, 182, 256, 187, 14, 8, 250, 264, 22
5, 15, 257, 271, 29, 17, 259, 273, 31, 183, 266, 188, 24, 184, 267, 189, 25, 16, 258, 272, 30
6, 17, 259, 273, 31, 19, 261, 275, 33, 184, 267, 189, 25, 185, 268, 190, 26, 18, 260, 274, 32
7, 19, 261, 275, 33, 21, 263, 277, 35, 185, 268, 190, 26, 186, 269, 191, 27, 20, 262, 276, 34
8, 21, 263, 277, 35, 23, 265, 279, 37, 186, 269, 191, 27, 187, 270, 192, 28, 22, 264, 278, 36
9, 29, 271, 285, 43, 31, 273, 287, 45, 188, 280, 193, 38, 189, 281, 194, 39, 30, 272, 286, 44
10, 31, 273, 287, 45, 33, 275, 289, 47, 189, 281, 194, 39, 190, 282, 195, 40, 32, 274, 288, 46
11, 33, 275, 289, 47, 35, 277, 291, 49, 190, 282, 195, 40, 191, 283, 196, 41, 34, 276, 290, 48
12, 35, 277, 291, 49, 37, 279, 293, 51, 191, 283, 196, 41, 192, 284, 197, 42, 36, 278, 292, 50
13, 43, 285, 299, 57, 45, 287, 301, 59, 193, 294, 198, 52, 194, 295, 199, 53, 44, 286, 300, 58
14, 45, 287, 301, 59, 47, 289, 303, 61, 194, 295, 199, 53, 195, 296, 200, 54, 46, 288, 302, 60
15, 47, 289, 303, 61, 49, 291, 305, 63, 195, 296, 200, 54, 196, 297, 201, 55, 48, 290, 304, 62
16, 49, 291, 305, 63, 51, 293, 307, 65, 196, 297, 201, 55, 197, 298, 202, 56, 50, 292, 306, 64
17, 57, 299, 313, 71, 59, 301, 315, 73, 198, 308, 203, 66, 199, 309, 204, 67, 58, 300, 314, 72
18, 59, 301, 315, 73, 61, 303, 317, 75, 199, 309, 204, 67, 200, 310, 205, 68, 60, 302, 316, 74
19, 61, 303, 317, 75, 63, 305, 319, 77, 200, 310, 205, 68, 201, 311, 206, 69, 62, 304, 318, 76
20, 63, 305, 319, 77, 65, 307, 321, 79, 201, 311, 206, 69, 202, 312, 207, 70, 64, 306, 320, 78
21, 71, 313, 327, 85, 73, 315, 329, 87, 203, 322, 208, 80, 204, 323, 209, 81, 72, 314, 328, 86
22, 73, 315, 329, 87, 75, 317, 331, 89, 204, 323, 209, 81, 205, 324, 210, 82, 74, 316, 330, 88
23, 75, 317, 331, 89, 77, 319, 333, 91, 205, 324, 210, 82, 206, 325, 211, 83, 76, 318, 332, 90
24, 77, 319, 333, 91, 79, 321, 335, 93, 206, 325, 211, 83, 207, 326, 212, 84, 78, 320, 334, 92
25, 85, 327, 341, 99, 87, 329, 343, 101, 208, 336, 213, 94, 209, 337, 214, 95, 86, 328, 342, 100
26, 87, 329, 343, 101, 89, 331, 345, 103, 209, 337, 214, 95, 210, 338, 215, 96, 88, 330, 344, 102
27, 89, 331, 345, 103, 91, 333, 347, 105, 210, 338, 215, 96, 211, 339, 216, 97, 90, 332, 346, 104
28, 91, 333, 347, 105, 93, 335, 349, 107, 211, 339, 216, 97, 212, 340, 217, 98, 92, 334, 348, 106
29, 99, 341, 355, 113, 101, 343, 357, 115, 213, 350, 218, 108, 214, 351, 219, 109, 100, 342, 356, 114
30, 101, 343, 357, 115, 103, 345, 359, 117, 214, 351, 219, 109, 215, 352, 220, 110, 102, 344, 358, 116
31, 103, 345, 359, 117, 105, 347, 361, 119, 215, 352, 220, 110, 216, 353, 221, 111, 104, 346, 360, 118
32, 105, 347, 361, 119, 107, 349, 363, 121, 216, 353, 221, 111, 217, 354, 222, 112, 106, 348, 362, 120
33, 113, 355, 369, 127, 115, 357, 371, 129, 218, 364, 223, 122, 219, 365, 224, 123, 114, 356, 370, 128
34, 115, 357, 371, 129, 117, 359, 373, 131, 219, 365, 224, 123, 220, 366, 225, 124, 116, 358, 372, 130
35, 117, 359, 373, 131, 119, 361, 375, 133, 220, 366, 225, 124, 221, 367, 226, 125, 118, 360, 374, 132
36, 119, 361, 375, 133, 121, 363, 377, 135, 221, 367, 226, 125, 222, 368, 227, 126, 120, 362, 376, 134
37, 127, 369, 383, 141, 129, 371, 385, 143, 223, 378, 228, 136, 224, 379, 229, 137, 128, 370, 384, 142
38, 129, 371, 385, 143, 131, 373, 387, 145, 224, 379, 229, 137, 225, 380, 230, 138, 130, 372, 386, 144
39, 131, 373, 387, 145, 133, 375, 389, 147, 225, 380, 230, 138, 226, 381, 231, 139, 132, 374, 388, 146
40, 133, 375, 389, 147, 135, 377, 391, 149, 226, 381, 231, 139, 227, 382, 232, 140, 134, 376, 390, 148
41, 141, 383, 397, 155, 143, 385, 399, 157, 228, 392, 233, 150, 229, 393, 234, 151, 142, 384, 398, 156
42, 143, 385, 399, 157, 145, 387, 401, 159, 229, 393, 234, 151, 230, 394, 235, 152, 144, 386, 400, 158
43, 145, 387, 401, 159, 147, 389, 403, 161, 230, 394, 235, 152, 231, 395, 236, 153, 146, 388, 402, 160
44, 147, 389, 403, 161, 149, 391, 405, 163, 231, 395, 236, 153, 232, 396, 237, 154, 148, 390, 404, 162
45, 155, 397, 411, 169, 157, 399, 413, 171, 233, 406, 238, 164, 234, 407, 239, 165, 156, 398, 412, 170
46, 157, 399, 413, 171, 159, 401, 415, 173, 234, 407, 239, 165, 235, 408, 240, 166, 158, 400, 414, 172
47, 159, 401, 415, 173, 161, 403, 417, 175, 235, 408, 240, 166, 236, 409, 241, 167, 160, 402, 416, 174
48, 161, 403, 417, 175, 163, 405, 419, 177, 236, 409, 241, 167, 237, 410, 242, 168, 162, 404, 418, 176
49, 243, 485, 499, 257, 245, 487, 501, 259, 420, 494, 425, 252, 421, 495, 426, 253, 244, 486, 500, 258
50, 245, 487, 501, 259, 247, 489, 503, 261, 421, 495, 426, 253, 422, 496, 427, 254, 246, 488, 502, 260
51, 247, 489, 503, 261, 249, 491, 505, 263, 422, 496, 427, 254, 423, 497, 428, 255, 248, 490, 504, 262
52, 249, 491, 505, 263, 251, 493, 507, 265, 423, 497, 428, 255, 424, 498, 429, 256, 250, 492, 506, 264
53, 257, 499, 513, 271, 259, 501, 515, 273, 425, 508, 430, 266, 426, 509, 431, 267, 258, 500, 514, 272
54, 259, 501, 515, 273, 261, 503, 517, 275, 426, 509, 431, 267, 427, 510, 432, 268, 260, 502, 516, 274
55, 261, 503, 517, 275, 263, 505, 519, 277, 427, 510, 432, 268, 428, 511, 433, 269, 262, 504, 518, 276
56, 263, 505, 519, 277, 265, 507, 521, 279, 428, 511, 433, 269, 429, 512, 434, 270, 264, 506, 520, 278
57, 271, 513, 527, 285, 273, 515, 529, 287, 430, 522, 435, 280, 431, 523, 436, 281, 272, 514, 528, 286
58, 273, 515, 529, 287, 275, 517, 531, 289, 431, 523, 436, 281, 432, 524, 437, 282, 274, 516, 530, 288
59, 275, 517, 531, 289, 277, 519, 533, 291, 432, 524, 437, 282, 433, 525, 438, 283, 276, 518, 532, 290
60, 277, 519, 533, 291, 279, 521, 535, 293, 433, 525, 438, 283, 434, 526, 439, 284, 278, 520, 534, 292
61, 285, 527, 541, 299, 287, 529, 543, 301, 435, 536, 440, 294, 436, 537, 441, 295, 286, 528, 542, 300
62, 287, 529, 543, 301, 289, 531, 545, 303, 436, 537, 441, 295, 437, 538, 442, 296, 288, 530, 544, 302
63, 289, 531, 545, 303, 291, 533, 547, 305, 437, 538, 442, 296, 438, 539, 443, 297, 290, 532, 546, 304
64, 291, 533, 547, 305, 293, 535, 549, 307, 438, 539, 443, 297, 439, 540, 444, 298, 292, 534, 548, 306
65, 299, 541, 555, 313, 301, 543, 557, 315, 440, 550, 445, 308, 441, 551, 446, 309, 300, 542, 556, 314
66, 301, 543, 557, 315, 303, 545, 559, 317, 441, 551, 446, 309, 442, 552, 447, 310, 302, 544, 558, 316
67, 303, 545, 559, 317, 305, 547, 561, 319, 442, 552, 447, 310, 443, 553, 448, 311, 304, 546, 560, 318
68, 305, 547, 561, 319, 307, 549, 563, 321, 443, 553, 448, 311, 444, 554, 449, 312, 306, 548, 562, 320
69, 313, 555, 569, 327, 315, 557, 571, 329, 445, 564, 450, 322, 446, 565, 451, 323, 314, 556, 570, 328
70, 315, 557, 571, 329, 317, 559, 573, 331, 446, 565, 451, 323, 447, 566, 452, 324, 316, 558, 572, 330
71, 317, 559, 573, 331, 319, 561, 575, 333, 447, 566, 452, 324, 448, 567, 453, 325, 318, 560, 574, 332
72, 319, 561, 575, 333, 321, 563, 577, 335, 448, 567, 453, 325, 449, 568, 454, 326, 320, 562, 576, 334
73, 327, 569, 583, 341, 329, 571, 585, 343, 450, 578, 455, 336, 451, 579, 456, 337, 328, 570, 584, 342
74, 329, 571, 585, 343, 331, 573, 587, 345, 451, 579, 456, 337, 452, 580, 457, 338, 330, 572, 586, 344
75, 331, 573, 587, 345, 333, 575, 589, 347, 452, 580, 457, 338, 453, 581, 458, 339, 332, 574, 588, 346
76, 333, 575, 589, 347, 335, 577, 591, 349, 453, 581, 458, 339, 454, 582, 459, 340, 334, 576, 590, 348
77, 341, 583, 597, 355, 343, 585, 599, 357, 455, 592, 460, 350, 456, 593, 461, 351, 342, 584, 598, 356
78, 343, 585, 599, 357, 345, 587, 601, 359, 456, 593, 461, 351, 457, 594, 462, 352, 344, 586, 600, 358
79, 345, 587, 601, 359, 347, 589, 603, 361, 457, 594, 462, 352, 458, 595, 463, 353, 346, 588, 602, 360
80, 347, 589, 603, 361, 349, 591, 605, 363, 458, 595, 463, 353, 459, 596, 464, 354, 348, 590, 604, 362
81, 355, 597, 611, 369, 357, 599, 613, 371, 460, 606, 465, 364, 461, 607, 466, 365, 356, 598, 612, 370
82, 357, 599, 613, 371, 359, 601, 615, 373, 461, 607, 466, 365, 462, 608, 467, 366, 358, 600, 614, 372
83, 359, 601, 615, 373, 361, 603, 617, 375, 462, 608, 467, 366, 463, 609, 468, 367, 360, 602, 616, 374
84, 361, 603, 617, 375, 363, 605, 619, 377, 463, 609, 468, 367, 464, 610, 469, 368, 362, 604, 618, 376
85, 369, 611, 625, 383, 371, 613, 627, 385, 465, 620, 470, 378, 466, 621, 471, 379, 370, 612, 626, 384
86, 371, 613, 627, 385, 373, 615, 629, 387, 466, 621, 471, 379, 467, 622, 472, 380, 372, 614, 628, 386
87, 373, 615, 629, 387, 375, 617, 631, 389, 467, 622, 472, 380, 468, 623, 473, 381, 374, 616, 630, 388
88, 375, 617, 631, 389, 377, 619, 633, 391, 468, 623, 473, 381, 469, 624, 474, 382, 376, 618, 632, 390
89, 383, 625, 639, 397, 385, 627, 641, 399, 470, 634, 475, 392, 471, 635, 476, 393, 384, 626, 640, 398
90, 385, 627, 641, 399, 387, 629, 643, 401, 471, 635, 476, 393, 472, 636, 477, 394, 386, 628, 642, 400
91, 387, 629, 643, 401, 389, 631, 645, 403, 472, 636, 477, 394, 473, 637, 478, 395, 388, 630, 644, 402
92, 389, 631, 645, 403, 391, 633, 647, 405, 473, 637, 478, 395, 474, 638, 479, 396, 390, 632, 646, 404
93, 397, 639, 653, 411, 399, 641, 655, 413, 475, 648, 480, 406, 476, 649, 481, 407, 398, 640, 654, 412
94, 399, 641, 655, 413, 401, 643, 657, 415, 476, 649, 481, 407, 477, 650, 482, 408, 400, 642, 656, 414
95, 401, 643, 657, 415, 403, 645, 659, 417, 477, 650, 482, 408, 478, 651, 483, 409, 402, 644, 658, 416
96, 403, 645, 659, 417, 405, 647, 661, 419, 478, 651, 483, 409, 479, 652, 484, 410, 404, 646, 660, 418
97, 485, 727, 741, 499, 487, 729, 743, 501, 662, 736, 667, 494, 663, 737, 668, 495, 486, 728, 742, 500
98, 487, 729, 743, 501, 489, 731, 745, 503, 663, 737, 668, 495, 664, 738, 669, 496, 488, 730, 744, 502
99, 489, 731, 745, 503, 491, 733, 747, 505, 664, 738, 669, 496, 665, 739, 670, 497, 490, 732, 746, 504
100, 491, 733, 747, 505, 493, 735, 749, 507, 665, 739, 670, 497, 666, 740, 671, 498, 492, 734, 748, 506
101, 499, 741, 755, 513, 501, 743, 757, 515, 667, 750, 672, 508, 668, 751, 673, 509, 500, 742, 756, 514
102, 501, 743, 757, 515, 503, 745, 759, 517, 668, 751, 673, 509, 669, 752, 674, 510, 502, 744, 758, 516
103, 503, 745, 759, 517, 505, 747, 761, 519, 669, 752, 674, 510, 670, 753, 675, 511, 504, 746, 760, 518
104, 505, 747, 761, 519, 507, 749, 763, 521, 670, 753, 675, 511, 671, 754, 676, 512, 506, 748, 762, 520
105, 513, 755, 769, 527, 515, 757, 771, 529, 672, 764, 677, 522, 673, 765, 678, 523, 514, 756, 770, 528
106, 515, 757, 771, 529, 517, 759, 773, 531, 673, 765, 678, 523, 674, 766, 679, 524, 516, 758, 772, 530
107, 517, 759, 773, 531, 519, 761, 775, 533, 674, 766, 679, 524, 675, 767, 680, 525, 518, 760, 774, 532
108, 519, 761, 775, 533, 521, 763, 777, 535, 675, 767, 680, 525, 676, 768, 681, 526, 520, 762, 776, 534
109, 527, 769, 783, 541, 529, 771, 785, 543, 677, 778, 682, 536, 678, 779, 683, 537, 528, 770, 784, 542
110, 529, 771, 785, 543, 531, 773, 787, 545, 678, 779, 683, 537, 679, 780, 684, 538, 530, 772, 786, 544
111, 531, 773, 787, 545, 533, 775, 789, 547, 679, 780, 684, 538, 680, 781, 685, 539, 532, 774, 788, 546
112, 533, 775, 789, 547, 535, 777, 791, 549, 680, 781, 685, 539, 681, 782, 686, 540, 534, 776, 790, 548
113, 541, 783, 797, 555, 543, 785, 799, 557, 682, 792, 687, 550, 683, 793, 688, 551, 542, 784, 798, 556
114, 543, 785, 799, 557, 545, 787, 801, 559, 683, 793, 688, 551, 684, 794, 689, 552, 544, 786, 800, 558
115, 545, 787, 801, 559, 547, 789, 803, 561, 684, 794, 689, 552, 685, 795, 690, 553, 546, 788, 802, 560
116, 547, 789, 803, 561, 549, 791, 805, 563, 685, 795, 690, 553, 686, 796, 691, 554, 548, 790, 804, 562
117, 555, 797, 811, 569, 557, 799, 813, 571, 687, 806, 692, 564, 688, 807, 693, 565, 556, 798, 812, 570
118, 557, 799, 813, 571, 559, 801, 815, 573, 688, 807, 693, 565, 689, 808, 694, 566, 558, 800, 814, 572
119, 559, 801, 815, 573, 561, 803, 817, 575, 689, 808, 694, 566, 690, 809, 695, 567, 560, 802, 816, 574
120, 561, 803, 817, 575, 563, 805, 819, 577, 690, 809, 695, 567, 691, 810, 696, 568, 562, 804, 818, 576
121, 569, 811, 825, 583, 571, 813, 827, 585, 692, 820, 697, 578, 693, 821, 698, 579, 570, 812, 826, 584
122, 571, 813, 827, 585, 573, 815, 829, 587, 693, 821, 698, 579, 694, 822, 699, 580, 572, 814, 828, 586
123, 573, 815, 829, 587, 575, 817, 831, 589, 694, 822, 699, 580, 695, 823, 700, 581, 574, 816, 830, 588
124, 575, 817, 831, 589, 577, 819, 833, 591, 695, 823, 700, 581, 696, 824, 701, 582, 576, 818, 832, 590
125, 583, 825, 839, 597, 585, 827, 841, 599, 697, 834, 702, 592, 698, 835, 703, 593, 584, 826, 840, 598
126, 585, 827, 841, 599, 587, 829, 843, 601, 698, 835, 703, 593, 699, 836, 704, 594, 586, 828, 842, 600
127, 587, 829, 843, 601, 589, 831, 845, 603, 699, 836, 704, 594, 700, 837, 705, 595, 588, 830, 844, 602
128, 589, 831, 845, 603, 591, 833, 847, 605, 700, 837, 705, 595, 701, 838, 706, 596, 590, 832, 846, 604
129, 597, 839, 853, 611, 599, 841, 855, 613, 702, 848, 707, 606, 703, 849, 708, 607, 598, 840, 854, 612
130, 599, 841, 855, 613, 601, 843, 857, 615, 703, 849, 708, 607, 704, 850, 709, 608, 600, 842, 856, 614
131, 601, 843, 857, 615, 603, 845, 859, 617, 704, 850, 709, 608, 705, 851, 710, 609, 602, 844, 858, 616
132, 603, 845, 859, 617, 605, 847, 861, 619, 705, 851, 710, 609, 706, 852, 711, 610, 604, 846, 860, 618
133, 611, 853, 867, 625, 613, 855, 869, 627, 707, 862, 712, 620, 708, 863, 713, 621, 612, 854, 868, 626
134, 613, 855, 869, 627, 615, 857, 871, 629, 708, 863, 713, 621, 709, 864, 714, 622, 614, 856, 870, 628
135, 615, 857, 871, 629, 617, 859, 873, 631, 709, 864, 714, 622, 710, 865, 715, 623, 616, 858, 872, 630
136, 617, 859, 873, 631, 619, 861, 875, 633, 710, 865, 715, 623, 711, 866, 716, 624, 618, 860, 874, 632
137, 625, 867, 881, 639, 627, 869, 883, 641, 712, 876, 717, 634, 713, 877, 718, 635, 626, 868, 882, 640
138, 627, 869, 883, 641, 629, 871, 885, 643, 713, 877, 718, 635, 714, 878, 719, 636, 628, 870, 884, 642
139, 629, 871, 885, 643, 631, 873, 887, 645, 714, 878, 719, 636, 715, 879, 720, 637, 630, 872, 886, 644
140, 631, 873, 887, 645, 633, 875, 889, 647, 715, 879, 720, 637, 716, 880, 721, 638, 632, 874, 888, 646
141, 639, 881, 895, 653, 641, 883, 897, 655, 717, 890, 722, 648, 718, 891, 723, 649, 640, 882, 896, 654
142, 641, 883, 897, 655, 643, 885, 899, 657, 718, 891, 723, 649, 719, 892, 724, 650, 642, 884, 898, 656
143, 643, 885, 899, 657, 645, 887, 901, 659, 719, 892, 724, 650, 720, 893, 725, 651, 644, 886, 900, 658
144, 645, 887, 901, 659, 647, 889, 903, 661, 720, 893, 725, 651, 721, 894, 726, 652, 646, 888, 902, 660
145, 727, 969, 983, 741, 729, 971, 985, 743, 904, 978, 909, 736, 905, 979, 910, 737, 728, 970, 984, 742
146, 729, 971, 985, 743, 731, 973, 987, 745, 905, 979, 910, 737, 906, 980, 911, 738, 730, 972, 986, 744
147, 731, 973, 987, 745, 733, 975, 989, 747, 906, 980, 911, 738, 907, 981, 912, 739, 732, 974, 988, 746
148, 733, 975, 989, 747, 735, 977, 991, 749, 907, 981, 912, 739, 908, 982, 913, 740, 734, 976, 990, 748
149, 741, 983, 997, 755, 743, 985, 999, 757, 909, 992, 914, 750, 910, 993, 915, 751, 742, 984, 998, 756
150, 743, 985, 999, 757, 745, 987, 1001, 759, 910, 993, 915, 751, 911, 994, 916, 752, 744, 986, 1000, 758
151, 745, 987, 1001, 759, 747, 989, 1003, 761, 911, 994, 916, 752, 912, 995, 917, 753, 746, 988, 1002, 760
152, 747, 989, 1003, 761, 749, 991, 1005, 763, 912, 995, 917, 753, 913, 996, 918, 754, 748, 990, 1004, 762
153, 755, 997, 1011, 769, 757, 999, 1013, 771, 914, 1006, 919, 764, 915, 1007, 920, 765, 756, 998, 1012, 770
154, 757, 999, 1013, 771, 759, 1001, 1015, 773, 915, 1007, 920, 765, 916, 1008, 921, 766, 758, 1000, 1014, 772
155, 759, 1001, 1015, 773, 761, 1003, 1017, 775, 916, 1008, 921, 766, 917, 1009, 922, 767, 760, 1002, 1016, 774
156, 761, 1003, 1017, 775, 763, 1005, 1019, 777, 917, 1009, 922, 767, 918, 1010, 923, 768, 762, 1004, 1018, 776
157, 769, 1011, 1025, 783, 771, 1013, 1027, 785, 919, 1020, 924, 778, 920, 1021, 925, 779, 770, 1012, 1026, 784
158, 771, 1013, 1027, 785, 773, 1015, 1029, 787, 920, 1021, 925, 779, 921, 1022, 926, 780, 772, 1014, 1028, 786
159, 773, 1015, 1029, 787, 775, 1017, 1031, 789, 921, 1022, 926, 780, 922, 1023, 927, 781, 774, 1016, 1030, 788
160, 775, 1017, 1031, 789, 777, 1019, 1033, 791, 922, 1023, 927, 781, 923, 1024, 928, 782, 776, 1018, 1032, 790
161, 783, 1025, 1039, 797, 785, 1027, 1041, 799, 924, 1034, 929, 792, 925, 1035, 930, 793, 784, 1026, 1040, 798
162, 785, 1027, 1041, 799, 787, 1029, 1043, 801, 925, 1035, 930, 793, 926, 1036, 931, 794, 786, 1028, 1042, 800
163, 787, 1029, 1043, 801, 789, 1031, 1045, 803, 926, 1036, 931, 794, 927, 1037, 932, 795, 788, 1030, 1044, 802
164, 789, 1031, 1045, 803, 791, 1033, 1047, 805, 927, 1037, 932, 795, 928, 1038, 933, 796, 790, 1032, 1046, 804
165, 797, 1039, 1053, 811, 799, 1041, 1055, 813, 929, 1048, 934, 806, 930, 1049, 935, 807, 798, 1040, 1054, 812
166, 799, 1041, 1055, 813, 801, 1043, 1057, 815, 930, 1049, 935, 807, 931, 1050, 936, 808, 800, 1042, 1056, 814
167, 801, 1043, 1057, 815, 803, 1045, 1059, 817, 931, 1050, 936, 808, 932, 1051, 937, 809, 802, 1044, 1058, 816
168, 803, 1045, 1059, 817, 805, 1047, 1061, 819, 932, 1051, 937, 809, 933, 1052, 938, 810, 804, 1046, 1060, 818
169, 811, 1053, 1067, 825, 813, 1055, 1069, 827, 934, 1062, 939, 820, 935, 1063, 940, 821, 812, 1054, 1068, 826
170, 813, 1055, 1069, 827, 815, 1057, 1071, 829, 935, 1063, 940, 821, 936, 1064, 941, 822, 814, 1056, 1070, 828
171, 815, 1057, 1071, 829, 817, 1059, 1073, 831, 936, 1064, 941, 822, 937, 1065, 942, 823, 816, 1058, 1072, 830
172, 817, 1059, 1073, 831, 819, 1061, 1075, 833, 937, 1065, 942, 823, 938, 1066, 943, 824, 818, 1060, 1074, 832
173, 825, 1067, 1081, 839, 827, 1069, 1083, 841, 939, 1076, 944, 834, 940, 1077, 945, 835, 826, 1068, 1082, 840
174, 827, 1069, 1083, 841, 829, 1071, 1085, 843, 940, 1077, 945, 835, 941, 1078, 946, 836, 828, 1070, 1084, 842
175, 829, 1071, 1085, 843, 831, 1073, 1087, 845, 941, 1078, 946, 836, 942, 1079, 947, 837, 830, 1072, 1086, 844
176, 831, 1073, 1087, 845, 833, 1075, 1089, 847, 942, 1079, 947, 837, 943, 1080, 948, 838, 832, 1074, 1088, 846
177, 839, 1081, 1095, 853, 841, 1083, 1097, 855, 944, 1090, 949, 848, 945, 1091, 950, 849, 840, 1082, 1096, 854
178, 841, 1083, 1097, 855, 843, 1085, 1099, 857, 945, 1091, 950, 849, 946, 1092, 951, 850, 842, 1084, 1098, 856
179, 843, 1085, 1099, 857, 845, 1087, 1101, 859, 946, 1092, 951, 850, 947, 1093, 952, 851, 844, 1086, 1100, 858
180, 845, 1087, 1101, 859, 847, 1089, 1103, 861, 947, 1093, 952, 851, 948, 1094, 953, 852, 846, 1088, 1102, 860
181, 853, 1095, 1109, 867, 855, 1097, 1111, 869, 949, 1104, 954, 862, 950, 1105, 955, 863, 854, 1096, 1110, 868
182, 855, 1097, 1111, 869, 857, 1099, 1113, 871, 950, 1105, 955, 863, 951, 1106, 956, 864, 856, 1098, 1112, 870
183, 857, 1099, 1113, 871, 859, 1101, 1115, 873, 951, 1106, 956, 864, 952, 1107, 957, 865, 858, 1100, 1114, 872
184, 859, 1101, 1115, 873, 861, 1103, 1117, 875, 952, 1107, 957, 865, 953, 1108, 958, 866, 860, 1102, 1116, 874
185, 867, 1109, 1123, 881, 869, 1111, 1125, 883, 954, 1118, 959, 876, 955, 1119, 960, 877, 868, 1110, 1124, 882
186, 869, 1111, 1125, 883, 871, 1113, 1127, 885, 955, 1119, 960, 877, 956, 1120, 961, 878, 870, 1112, 1126, 884
187, 871, 1113, 1127, 885, 873, 1115, 1129, 887, 956, 1120, 961, 878, 957, 1121, 962, 879, 872, 1114, 1128, 886
188, 873, 1115, 1129, 887, 875, 1117, 1131, 889, 957, 1121, 962, 879, 958, 1122, 963, 880, 874, 1116, 1130, 888
189, 881, 1123, 1137, 895, 883, 1125, 1139, 897, 959, 1132, 964, 890, 960, 1133, 965, 891, 882, 1124, 1138, 896
190, 883, 1125, 1139, 897, 885, 1127, 1141, 899, 960, 1133, 965, 891, 961, 1134, 966, 892, 884, 1126, 1140, 898
191, 885, 1127, 1141, 899, 887, 1129, 1143, 901, 961, 1134, 966, 892, 962, 1135, 967, 893, 886, 1128, 1142, 900
192, 887, 1129, 1143, 901, 889, 1131, 1145, 903, 962, 1135, 967, 893, 963, 1136, 968, 894, 888, 1130, 1144, 902
193, 969, 1211, 1225, 983, 971, 1213, 1227, 985, 1146, 1220, 1151, 978, 1147, 1221, 1152, 979, 970, 1212, 1226, 984
194, 971, 1213, 1227, 985, 973, 1215, 1229, 987, 1147, 1221, 1152, 979, 1148, 1222, 1153, 980, 972, 1214, 1228, 986
195, 973, 1215, 1229, 987, 975, 1217, 1231, 989, 1148, 1222, 1153, 980, 1149, 1223, 1154, 981, 974, 1216, 1230, 988
196, 975, 1217, 1231, 989, 977, 1219, 1233, 991, 1149, 1223, 1154, 981, 1150, 1224, 1155, 982, 976, 1218, 1232, 990
197, 983, 1225, 1239, 997, 985, 1227, 1241, 999, 1151, 1234, 1156, 992, 1152, 1235, 1157, 993, 984, 1226, 1240, 998
198, 985, 1227, 1241, 999, 987, 1229, 1243, 1001, 1152, 1235, 1157, 993, 1153, 1236, 1158, 994, 986, 1228, 1242, 1000
199, 987, 1229, 1243, 1001, 989, 1231, 1245, 1003, 1153, 1236, 1158, 994, 1154, 1237, 1159, 995, 988, 1230, 1244, 1002
200, 989, 1231, 1245, 1003, 991, 1233, 1247, 1005, 1154, 1237, 1159, 995, 1155, 1238, 1160, 996, 990, 1232, 1246, 1004
201, 997, 1239, 1253, 1011, 999, 1241, 1255, 1013, 1156, 1248, 1161, 1006, 1157, 1249, 1162, 1007, 998, 1240, 1254, 1012
202, 999, 1241, 1255, 1013, 1001, 1243, 1257, 1015, 1157, 1249, 1162, 1007, 1158, 1250, 1163, 1008, 1000, 1242, 1256, 1014
203, 1001, 1243, 1257, 1015, 1003, 1245, 1259, 1017, 1158, 1250, 1163, 1008, 1159, 1251, 1164, 1009, 1002, 1244, 1258, 1016
204, 1003, 1245, 1259, 1017, 1005, 1247, 1261, 1019, 1159, 1251, 1164, 1009, 1160, 1252, 1165, 1010, 1004, 1246, 1260, 1018
205, 1011, 1253, 1267, 1025, 1013, 1255, 1269, 1027, 1161, 1262, 1166, 1020, 1162, 1263, 1167, 1021, 1012, 1254, 1268, 1026
206, 1013, 1255, 1269, 1027, 1015, 1257, 1271, 1029, 1162, 1263, 1167, 1021, 1163, 1264, 1168, 1022, 1014, 1256, 1270, 1028
207, 1015, 1257, 1271, 1029, 1017, 1259, 1273, 1031, 1163, 1264, 1168, 1022, 1164, 1265, 1169, 1023, 1016, 1258, 1272, 1030
208, 1017, 1259, 1273, 1031, 1019, 1261, 1275, 1033, 1164, 1265, 1169, 1023, 1165, 1266, 1170, 1024, 1018, 1260, 1274, 1032
209, 1025, 1267, 1281, 1039, 1027, 1269, 1283, 1041, 1166, 1276, 1171, 1034, 1167, 1277, 1172, 1035, 1026, 1268, 1282, 1040
210, 1027, 1269, 1283, 1041, 1029, 1271, 1285, 1043, 1167, 1277, 1172, 1035, 1168, 1278, 1173, 1036, 1028, 1270, 1284, 1042
211, 1029, 1271, 1285, 1043, 1031, 1273, 1287, 1045, 1168, 1278, 1173, 1036, 1169, 1279, 1174, 1037, 1030, 1272, 1286, 1044
212, 1031, 1273, 1287, 1045, 1033, 1275, 1289, 1047, 1169, 1279, 1174, 1037, 1170, 1280, 1175, 1038, 1032, 1274, 1288, 1046
213, 1039, 1281, 1295, 1053, 1041, 1283, 1297, 1055, 1171, 1290, 1176, 1048, 1172, 1291, 1177, 1049, 1040, 1282, 1296, 1054
214, 1041, 1283, 1297, 1055, 1043, 1285, 1299, 1057, 1172, 1291, 1177, 1049, 1173, 1292, 1178, 1050, 1042, 1284, 1298, 1056
215, 1043, 1285, 1299, 1057, 1045, 1287, 1301, 1059, 1173, 1292, 1178, 1050, 1174, 1293, 1179, 1051, 1044, 1286, 1300, 1058
216, 1045, 1287, 1301, 1059, 1047, 1289, 1303, 1061, 1174, 1293, 1179, 1051, 1175, 1294, 1180, 1052, 1046, 1288, 1302, 1060
217, 1053, 1295, 1309, 1067, 1055, 1297, 1311, 1069, 1176, 1304, 1181, 1062, 1177, 1305, 1182, 1063, 1054, 1296, 1310, 1068
218, 1055, 1297, 1311, 1069, 1057, 1299, 1313, 1071, 1177, 1305, 1182, 1063, 1178, 1306, 1183, 1064, 1056, 1298, 1312, 1070
219, 1057, 1299, 1313, 1071, 1059, 1301, 1315, 1073, 1178, 1306, 1183, 1064, 1179, 1307, 1184, 1065, 1058, 1300, 1314, 1072
220, 1059, 1301, 1315, 1073, 1061, 1303, 1317, 1075, 1179, 1307, 1184, 1065, 1180, 1308, 1185, 1066, 1060, 1302, 1316, 1074
221, 1067, 1309, 1323, 1081, 1069, 1311, 1325, 1083, 1181, 1318, 1186, 1076, 1182, 1319, 1187, 1077, 1068, 1310, 1324, 1082
222, 1069, 1311, 1325, 1083, 1071, 1313, 1327, 1085, 1182, 1319, 1187, 1077, 1183, 1320, 1188, 1078, 1070, 1312, 1326, 1084
223, 1071, 1313, 1327, 1085, 1073, 1315, 1329, 1087, 1183, 1320, 1188, 1078, 1184, 1321, 1189, 1079, 1072, 1314, 1328, 1086
224, 1073, 1315, 1329, 1087, 1075, 1317, 1331, 1089, 1184, 1321, 1189, 1079, 1185, 1322, 1190, 1080, 1074, 1316, 1330, 1088
225, 1081, 1323, 1337, 1095, 1083, 1325, 1339, 1097, 1186, 1332, 1191, 1090, 1187, 1333, 1192, 1091, 1082, 1324, 1338, 1096
226, 1083, 1325, 1339, 1097, 1085, 1327, 1341, 1099, 1187, 1333, 1192, 1091, 1188, 1334, 1193, 1092, 1084, 1326, 1340, 1098
227, 1085, 1327, 1341, 1099, 1087, 1329, 1343, 1101, 1188, 1334, 1193, 1092, 1189, 1335, 1194, 1093, 1086, 1328, 1342, 1100
228, 1087, 1329, 1343, 1101, 1089, 1331, 1345, 1103, 1189, 1335, 1194, 1093, 1190, 1336, 1195, 1094, 1088, 1330, 1344, 1102
229, 1095, 1337, 1351, 1109, 1097, 1339, 1353, 1111, 1191, 1346, 1196, 1104, 1192, 1347, 1197, 1105, 1096, 1338, 1352, 1110
230, 1097, 1339, 1353, 1111, 1099, 1341, 1355, 1113, 1192, 1347, 1197, 1105, 1193, 1348, 1198, 1106, 1098, 1340, 1354, 1112
231, 1099, 1341, 1355, 1113, 1101, 1343, 1357, 1115, 1193, 1348, 1198, 1106, 1194, 1349, 1199, 1107, 1100, 1342, 1356, 1114
232, 1101, 1343, 1357, 1115, 1103, 1345, 1359, 1117, 1194, 1349, 1199, 1107, 1195, 1350, 1200, 1108, 1102, 1344, 1358, 1116
233, 1109, 1351, 1365, 1123, 1111, 1353, 1367, 1125, 1196, 1360, 1201, 1118, 1197, 1361, 1202, 1119, 1110, 1352, 1366, 1124
234, 1111, 1353, 1367, 1125, 1113, 1355, 1369, 1127, 1197, 1361, 1202, 1119, 1198, 1362, 1203, 1120, 1112, 1354, 1368, 1126
235, 1113, 1355, 1369, 1127, 1115, 1357, 1371, 1129, 1198, 1362, 1203, 1120, 1199, 1363, 1204, 1121, 1114, 1356, 1370, 1128
236, 1115, 1357, 1371, 1129, 1117, 1359, 1373, 1131, 1199, 1363, 1204, 1121, 1200, 1364, 1205, 1122, 1116, 1358, 1372, 1130
237, 1123, 1365, 1379, 1137, 1125, 1367, 1381, 1139, 1201, 1374, 1206, 1132, 1202, 1375, 1207, 1133, 1124, 1366, 1380, 1138
238, 1125, 1367, 1381, 1139, 1127, 1369, 1383, 1141, 1202, 1375, 1207, 1133, 1203, 1376, 1208, 1134, 1126, 1368, 1382, 1140
239, 1127, 1369, 1383, 1141, 1129, 1371, 1385, 1143, 1203, 1376, 1208, 1134, 1204, 1377, 1209, 1135, 1128, 1370, 1384, 1142
240, 1129, 1371, 1385, 1143, 1131, 1373, 1387, 1145, 1204, 1377, 1209, 1135, 1205, 1378, 1210, 1136, 1130, 1372, 1386, 1144
241, 1211, 1453, 1467, 1225, 1213, 1455, 1469, 1227, 1388, 1462, 1393, 1220, 1389, 1463, 1394, 1221, 1212, 1454, 1468, 1226
242, 1213, 1455, 1469, 1227, 1215, 1457, 1471, 1229, 1389, 1463, 1394, 1221, 1390, 1464, 1395, 1222, 1214, 1456, 1470, 1228
243, 1215, 1457, 1471, 1229, 1217, 1459, 1473, 1231, 1390, 1464, 1395, 1222, 1391, 1465, 1396, 1223, 1216, 1458, 1472, 1230
244, 1217, 1459, 1473, 1231, 1219, 1461, 1475, 1233, 1391, 1465, 1396, 1223, 1392, 1466, 1397, 1224, 1218, 1460, 1474, 1232
245, 1225, 1467, 1481, 1239, 1227, 1469, 1483, 1241, 1393, 1476, 1398, 1234, 1394, 1477, 1399, 1235, 1226, 1468, 1482, 1240
246, 1227, 1469, 1483, 1241, 1229, 1471, 1485, 1243, 1394, 1477, 1399, 1235, 1395, 1478, 1400, 1236, 1228, 1470, 1484, 1242
247, 1229, 1471, 1485, 1243, 1231, 1473, 1487, 1245, 1395, 1478, 1400, 1236, 1396, 1479, 1401, 1237, 1230, 1472, 1486, 1244
248, 1231, 1473, 1487, 1245, 1233, 1475, 1489, 1247, 1396, 1479, 1401, 1237, 1397, 1480, 1402, 1238, 1232, 1474, 1488, 1246
249, 1239, 1481, 1495, 1253, 1241, 1483, 1497, 1255, 1398, 1490, 1403, 1248, 1399, 1491, 1404, 1249, 1240, 1482, 1496, 1254
250, 1241, 1483, 1497, 1255, 1243, 1485, 1499, 1257, 1399, 1491, 1404, 1249, 1400, 1492, 1405, 1250, 1242, 1484, 1498, 1256
251, 1243, 1485, 1499, 1257, 1245, 1487, 1501, 1259, 1400, 1492, 1405, 1250, 1401, 1493, 1406, 1251, 1244, 1486, 1500, 1258
252, 1245, 1487, 1501, 1259, 1247, 1489, 1503, 1261, 1401, 1493, 1406, 1251, 1402, 1494, 1407, 1252, 1246, 1488, 1502, 1260
253, 1253, 1495, 1509, 1267, 1255, 1497, 1511, 1269, 1403, 1504, 1408, 1262, 1404, 1505, 1409, 1263, 1254, 1496, 1510, 1268
254, 1255, 1497, 1511, 1269, 1257, 1499, 1513, 1271, 1404, 1505, 1409, 1263, 1405, 1506, 1410, 1264, 1256, 1498, 1512, 1270
255, 1257, 1499, 1513, 1271, 1259, 1501, 1515, 1273, 1405, 1506, 1410, 1264, 1406, 1507, 1411, 1265, 1258, 1500, 1514, 1272
256, 1259, 1501, 1515, 1273, 1261, 1503, 1517, 1275, 1406, 1507, 1411, 1265, 1407, 1508, 1412, 1266, 1260, 1502, 1516, 1274
257, 1267, 1509, 1523, 1281, 1269, 1511, 1525, 1283, 1408, 1518, 1413, 1276, 1409, 1519, 1414, 1277, 1268, 1510, 1524, 1282
258, 1269, 1511, 1525, 1283, 1271, 1513, 1527, 1285, 1409, 1519, 1414, 1277, 1410, 1520, 1415, 1278, 1270, 1512, 1526, 1284
259, 1271, 1513, 1527, 1285, 1273, 1515, 1529, 1287, 1410, 1520, 1415, 1278, 1411, 1521, 1416, 1279, 1272, 1514, 1528, 1286
260, 1273, 1515, 1529, 1287, 1275, 1517, 1531, 1289, 1411, 1521, 1416, 1279, 1412, 1522, 1417, 1280, 1274, 1516, 1530, 1288
261, 1281, 1523, 1537, 1295, 1283, 1525, 1539, 1297, 1413, 1532, 1418, 1290, 1414, 1533, 1419, 1291, 1282, 1524, 1538, 1296
262, 1283, 1525, 1539, 1297, 1285, 1527, 1541, 1299, 1414, 1533, 1419, 1291, 1415, 1534, 1420, 1292, 1284, 1526, 1540, 1298
263, 1285, 1527, 1541, 1299, 1287, 1529, 1543, 1301, 1415, 1534, 1420, 1292, 1416, 1535, 1421, 1293, 1286, 1528, 1542, 1300
264, 1287, 1529, 1543, 1301, 1289, 1531, 1545, 1303, 1416, 1535, 1421, 1293, 1417, 1536, 1422, 1294, 1288, 1530, 1544, 1302
265, 1295, 1537, 1551, 1309, 1297, 1539, 1553, 1311, 1418, 1546, 1423, 1304, 1419, 1547, 1424, 1305, 1296, 1538, 1552, 1310
266, 1297, 1539, 1553, 1311, 1299, 1541, 1555, 1313, 1419, 1547, 1424, 1305, 1420, 1548, 1425, 1306, 1298, 1540, 1554, 1312
267, 1299, 1541, 1555, 1313, 1301, 1543, 1557, 1315, 1420, 1548, 1425, 1306, 1421, 1549, 1426, 1307, 1300, 1542, 1556, 1314
268, 1301, 1543, 1557, 1315, 1303, 1545, 1559, 1317, 1421, 1549, 1426, 1307, 1422, 1550, 1427, 1308, 1302, 1544, 1558, 1316
269, 1309, 1551, 1565, 1323, 1311, 1553, 1567, 1325, 1423, 1560, 1428, 1318, 1424, 1561, 1429, 1319, 1310, 1552, 1566, 1324
270, 1311, 1553, 1567, 1325, 1313, 1555, 1569, 1327, 1424, 1561, 1429, 1319, 1425, 1562, 1430, 1320, 1312, 1554, 1568, 1326
271, 1313, 1555, 1569, 1327, 1315, 1557, 1571, 1329, 1425, 1562, 1430, 1320, 1426, 1563, 1431, 1321, 1314, 1556, 1570, 1328
272, 1315, 1557, 1571, 1329, 1317, 1559, 1573, 1331, 1426, 1563, 1431, 1321, 1427, 1564, 1432, 1322, 1316, 1558, 1572, 1330
273, 1323, 1565, 1579, 1337, 1325, 1567, 1581, 1339, 1428, 1574, 1433, 1332, 1429, 1575, 1434, 1333, 1324, 1566, 1580, 1338
274, 1325, 1567, 1581, 1339, 1327, 1569, 1583, 1341, 1429, 1575, 1434, 1333, 1430, 1576, 1435, 1334, 1326, 1568, 1582, 1340
275, 1327, 1569, 1583, 1341, 1329, 1571, 1585, 1343, 1430, 1576, 1435, 1334, 1431, 1577, 1436, 1335, 1328, 1570, 1584, 1342
276, 1329, 1571, 1585, 1343, 1331, 1573, 1587, 1345, 1431, 1577, 1436, 1335, 1432, 1578, 1437, 1336, 1330, 1572, 1586, 1344
277, 1337, 1579, 1593, 1351, 1339, 1581, 1595, 1353, 1433, 1588, 1438, 1346, 1434, 1589, 1439, 1347, 1338, 1580, 1594, 1352
278, 1339, 1581, 1595, 1353, 1341, 1583, 1597, 1355, 1434, 1589, 1439, 1347, 1435, 1590, 1440, 1348, 1340, 1582, 1596, 1354
279, 1341, 1583, 1597, 1355, 1343, 1585, 1599, 1357, 1435, 1590, 1440, 1348, 1436, 1591, 1441, 1349, 1342, 1584, 1598, 1356
280, 1343, 1585, 1599, 1357, 1345, 1587, 1601, 1359, 1436, 1591, 1441, 1349, 1437, 1592, 1442, 1350, 1344, 1586, 1600, 1358
281, 1351, 1593, 1607, 1365, 1353, 1595, 1609, 1367, 1438, 1602, 1443, 1360, 1439, 1603, 1444, 1361, 1352, 1594, 1608, 1366
282, 1353, 1595, 1609, 1367, 1355, 1597, 1611, 1369, 1439, 1603, 1444, 1361, 1440, 1604, 1445, 1362, 1354, 1596, 1610, 1368
283, 1355, 1597, 1611, 1369, 1357, 1599, 1613, 1371, 1440, 1604, 1445, 1362, 1441, 1605, 1446, 1363, 1356, 1598, 1612, 1370
284, 1357, 1599, 1613, 1371, 1359, 1601, 1615, 1373, 1441, 1605, 1446, 1363, 1442, 1606, 1447, 1364, 1358, 1600, 1614, 1372
285, 1365, 1607, 1621, 1379, 1367, 1609, 1623, 1381, 1443, 1616, 1448, 1374, 1444, 1617, 1449, 1375, 1366, 1608, 1622, 1380
286, 1367, 1609, 1623, 1381, 1369, 1611, 1625, 1383, 1444, 1617, 1449, 1375, 1445, 1618, 1450, 1376, 1368, 1610, 1624, 1382
287, 1369, 1611, 1625, 1383, 1371, 1613, 1627, 1385, 1445, 1618, 1450, 1376, 1446, 1619, 1451, 1377, 1370, 1612, 1626, 1384
288, 1371, 1613, 1627, 1385, 1373, 1615, 1629, 1387, 1446, 1619, 1451, 1377, 1447, 1620, 1452, 1378, 1372, 1614, 1628, 1386
289, 1453, 1695, 1709, 1467, 1455, 1697, 1711, 1469, 1630, 1704, 1635, 1462, 1631, 1705, 1636, 1463, 1454, 1696, 1710, 1468
290, 1455, 1697, 1711, 1469, 1457, 1699, 1713, 1471, 1631, 1705, 1636, 1463, 1632, 1706, 1637, 1464, 1456, 1698, 1712, 1470
291, 1457, 1699, 1713, 1471, 1459, 1701, 1715, 1473, 1632, 1706, 1637, 1464, 1633, 1707, 1638, 1465, 1458, 1700, 1714, 1472
292, 1459, 1701, 1715, 1473, 1461, 1703, 1717, 1475, 1633, 1707, 1638, 1465, 1634, 1708, 1639, 1466, 1460, 1702, 1716, 1474
293, 1467, 1709, 1723, 1481, 1469, 1711, 1725, 1483, 1635, 1718, 1640, 1476, 1636, 1719, 1641, 1477, 1468, 1710, 1724, 1482
294, 1469, 1711, 1725, 1483, 1471, 1713, 1727, 1485, 1636, 1719, 1641, 1477, 1637, 1720, 1642, 1478, 1470, 1712, 1726, 1484
295, 1471, 1713, 1727, 1485, 1473, 1715, 1729, 1487, 1637, 1720, 1642, 1478, 1638, 1721, 1643, 1479, 1472, 1714, 1728, 1486
296, 1473, 1715, 1729, 1487, 1475, 1717, 1731, 1489, 1638, 1721, 1643, 1479, 1639, 1722, 1644, 1480, 1474, 1716, 1730, 1488
297, 1481, 1723, 1737, 1495, 1483, 1725, 1739, 1497, 1640, 1732, 1645, 1490, 1641, 1733, 1646, 1491, 1482, 1724, 1738, 1496
298, 1483, 1725, 1739, 1497, 1485, 1727, 1741, 1499, 1641, 1733, 1646, 1491, 1642, 1734, 1647, 1492, 1484, 1726, 1740, 1498
299, 1485, 1727, 1741, 1499, 1487, 1729, 1743, 1501, 1642, 1734, 1647, 1492, 1643, 1735, 1648, 1493, 1486, 1728, 1742, 1500
300, 1487, 1729, 1743, 1501, 1489, 1731, 1745, 1503, 1643, 1735, 1648, 1493, 1644, 1736, 1649, 1494, 1488, 1730, 1744, 1502
301, 1495, 1737, 1751, 1509, 1497, 1739, 1753, 1511, 1645, 1746, 1650, 1504, 1646, 1747, 1651, 1505, 1496, 1738, 1752, 1510
302, 1497, 1739, 1753, 1511, 1499, 1741, 1755, 1513, 1646, 1747, 1651, 1505, 1647, 1748, 1652, 1506, 1498, 1740, 1754, 1512
303, 1499, 1741, 1755, 1513, 1501, 1743, 1757, 1515, 1647, 1748, 1652, 1506, 1648, 1749, 1653, 1507, 1500, 1742, 1756, 1514
304, 1501, 1743, 1757, 1515, 1503, 1745, 1759, 1517, 1648, 1749, 1653, 1507, 1649, 1750, 1654, 1508, 1502, 1744, 1758, 1516
305, 1509, 1751, 1765, 1523, 1511, 1753, 1767, 1525, 1650, 1760, 1655, 1518, 1651, 1761, 1656, 1519, 1510, 1752, 1766, 1524
306, 1511, 1753, 1767, 1525, 1513, 1755, 1769, 1527, 1651, 1761, 1656, 1519, 1652, 1762, 1657, 1520, 1512, 1754, 1768, 1526
307, 1513, 1755, 1769, 1527, 1515, 1757, 1771, 1529, 1652, 1762, 1657, 1520, 1653, 1763, 1658, 1521, 1514, 1756, 1770, 1528
308, 1515, 1757, 1771, 1529, 1517, 1759, 1773, 1531, 1653, 1763, 1658, 1521, 1654, 1764, 1659, 1522, 1516, 1758, 1772, 1530
309, 1523, 1765, 1779, 1537, 1525, 1767, 1781, 1539, 1655, 1774, 1660, 1532, 1656, 1775, 1661, 1533, 1524, 1766, 1780, 1538
310, 1525, 1767, 1781, 1539, 1527, 1769, 1783, 1541, 1656, 1775, 1661, 1533, 1657, 1776, 1662, 1534, 1526, 1768, 1782, 1540
311, 1527, 1769, 1783, 1541, 1529, 1771, 1785, 1543, 1657, 1776, 1662, 1534, 1658, 1777, 1663, 1535, 1528, 1770, 1784, 1542
312, 1529, 1771, 1785, 1543, 1531, 1773, 1787, 1545, 1658, 1777, 1663, 1535, 1659, 1778, 1664, 1536, 1530, 1772, 1786, 1544
313, 1537, 1779, 1793, 1551, 1539, 1781, 1795, 1553, 1660, 1788, 1665, 1546, 1661, 1789, 1666, 1547, 1538, 1780, 1794, 1552
314, 1539, 1781, 1795, 1553, 1541, 1783, 1797, 1555, 1661, 1789, 1666, 1547, 1662, 1790, 1667, 1548, 1540, 1782, 1796, 1554
315, 1541, 1783, 1797, 1555, 1543, 1785, 1799, 1557, 1662, 1790, 1667, 1548, 1663, 1791, 1668, 1549, 1542, 1784, 1798, 1556
316, 1543, 1785, 1799, 1557, 1545, 1787, 1801, 1559, 1663, 1791, 1668, 1549, 1664, 1792, 1669, 1550, 1544, 1786, 1800, 1558
317, 1551, 1793, 1807, 1565, 1553, 1795, 1809, 1567, 1665, 1802, 1670, 1560, 1666, 1803, 1671, 1561, 1552, 1794, 1808, 1566
318, 1553, 1795, 1809, 1567, 1555, 1797, 1811, 1569, 1666, 1803, 1671, 1561, 1667, 1804, 1672, 1562, 1554, 1796, 1810, 1568
319, 1555, 1797, 1811, 1569, 1557, 1799, 1813, 1571, 1667, 1804, 1672, 1562, 1668, 1805, 1673, 1563, 1556, 1798, 1812, 1570
320, 1557, 1799, 1813, 1571, 1559, 1801, 1815, 1573, 1668, 1805, 1673, 1563, 1669, 1806, 1674, 1564, 1558, 1800, 1814, 1572
321, 1565, 1807, 1821, 1579, 1567, 1809, 1823, 1581, 1670, 1816, 1675, 1574, 1671, 1817, 1676, 1575, 1566, 1808, 1822, 1580
322, 1567, 1809, 1823, 1581, 1569, 1811, 1825, 1583, 1671, 1817, 1676, 1575, 1672, 1818, 1677, 1576, 1568, 1810, 1824, 1582
323, 1569, 1811, 1825, 1583, 1571, 1813, 1827, 1585, 1672, 1818, 1677, 1576, 1673, 1819, 1678, 1577, 1570, 1812, 1826, 1584
324, 1571, 1813, 1827, 1585, 1573, 1815, 1829, 1587, 1673, 1819, 1678, 1577, 1674, 1820, 1679, 1578, 1572, 1814, 1828, 1586
325, 1579, 1821, 1835, 1593, 1581, 1823, 1837, 1595, 1675, 1830, 1680, 1588, 1676, 1831, 1681, 1589, 1580, 1822, 1836, 1594
326, 1581, 1823, 1837, 1595, 1583, 1825, 1839, 1597, 1676, 1831, 1681, 1589, 1677, 1832, 1682, 1590, 1582, 1824, 1838, 1596
327, 1583, 1825, 1839, 1597, 1585, 1827, 1841, 1599, 1677, 1832, 1682, 1590, 1678, 1833, 1683, 1591, 1584, 1826, 1840, 1598
328, 1585, 1827, 1841, 1599, 1587, 1829, 1843, 1601, 1678, 1833, 1683, 1591, 1679, 1834, 1684, 1592, 1586, 1828, 1842, 1600
329, 1593, 1835, 1849, 1607, 1595, 1837, 1851, 1609, 1680, 1844, 1685, 1602, 1681, 1845, 1686, 1603, 1594, 1836, 1850, 1608
330, 1595, 1837, 1851, 1609, 1597, 1839, 1853, 1611, 1681, 1845, 1686, 1603, 1682, 1846, 1687, 1604, 1596, 1838, 1852, 1610
331, 1597, 1839, 1853, 1611, 1599, 1841, 1855, 1613, 1682, 1846, 1687, 1604, 1683, 1847, 1688, 1605, 1598, 1840, 1854, 1612
332, 1599, 1841, 1855, 1613, 1601, 1843, 1857, 1615, 1683, 1847, 1688, 1605, 1684, 1848, 1689, 1606, 1600, 1842, 1856, 1614
333, 1607, 1849, 1863, 1621, 1609, 1851, 1865, 1623, 1685, 1858, 1690, 1616, 1686, 1859, 1691, 1617, 1608, 1850, 1864, 1622
334, 1609, 1851, 1865, 1623, 1611, 1853, 1867, 1625, 1686, 1859, 1691, 1617, 1687, 1860, 1692, 1618, 1610, 1852, 1866, 1624
335, 1611, 1853, 1867, 1625, 1613, 1855, 1869, 1627, 1687, 1860, 1692, 1618, 1688, 1861, 1693, 1619, 1612, 1854, 1868, 1626
336, 1613, 1855, 1869, 1627, 1615, 1857, 1871, 1629, 1688, 1861, 1693, 1619, 1689, 1862, 1694, 1620, 1614, 1856, 1870, 1628
337, 1695, 1937, 1951, 1709, 1697, 1939, 1953, 1711, 1872, 1946, 1877, 1704, 1873, 1947, 1878, 1705, 1696, 1938, 1952, 1710
338, 1697, 1939, 1953, 1711, 1699, 1941, 1955, 1713, 1873, 1947, 1878, 1705, 1874, 1948, 1879, 1706, 1698, 1940, 1954, 1712
339, 1699, 1941, 1955, 1713, 1701, 1943, 1957, 1715, 1874, 1948, 1879, 1706, 1875, 1949, 1880, 1707, 1700, 1942, 1956, 1714
340, 1701, 1943, 1957, 1715, 1703, 1945, 1959, 1717, 1875, 1949, 1880, 1707, 1876, 1950, 1881, 1708, 1702, 1944, 1958, 1716
341, 1709, 1951, 1965, 1723, 1711, 1953, 1967, 1725, 1877, 1960, 1882, 1718, 1878, 1961, 1883, 1719, 1710, 1952, 1966, 1724
342, 1711, 1953, 1967, 1725, 1713, 1955, 1969, 1727, 1878, 1961, 1883, 1719, 1879, 1962, 1884, 1720, 1712, 1954, 1968, 1726
343, 1713, 1955, 1969, 1727, 1715, 1957, 1971, 1729, 1879, 1962, 1884, 1720, 1880, 1963, 1885, 1721, 1714, 1956, 1970, 1728
344, 1715, 1957, 1971, 1729, 1717, 1959, 1973, 1731, 1880, 1963, 1885, 1721, 1881, 1964, 1886, 1722, 1716, 1958, 1972, 1730
345, 1723, 1965, 1979, 1737, 1725, 1967, 1981, 1739, 1882, 1974, 1887, 1732, 1883, 1975, 1888, 1733, 1724, 1966, 1980, 1738
346, 1725, 1967, 1981, 1739, 1727, 1969, 1983, 1741, 1883, 1975, 1888, 1733, 1884, 1976, 1889, 1734, 1726, 1968, 1982, 1740
347, 1727, 1969, 1983, 1741, 1729, 1971, 1985, 1743, 1884, 1976, 1889, 1734, 1885, 1977, 1890, 1735, 1728, 1970, 1984, 1742
348, 1729, 1971, 1985, 1743, 1731, 1973, 1987, 1745, 1885, 1977, 1890, 1735, 1886, 1978, 1891, 1736, 1730, 1972, 1986, 1744
349, 1737, 1979, 1993, 1751, 1739, 1981, 1995, 1753, 1887, 1988, 1892, 1746, 1888, 1989, 1893, 1747, 1738, 1980, 1994, 1752
350, 1739, 1981, 1995, 1753, 1741, 1983, 1997, 1755, 1888, 1989, 1893, 1747, 1889, 1990, 1894, 1748, 1740, 1982, 1996, 1754
351, 1741, 1983, 1997, 1755, 1743, 1985, 1999, 1757, 1889, 1990, 1894, 1748, 1890, 1991, 1895, 1749, 1742, 1984, 1998, 1756
352, 1743, 1985, 1999, 1757, 1745, 1987, 2001, 1759, 1890, 1991, 1895, 1749, 1891, 1992, 1896, 1750, 1744, 1986, 2000, 1758
353, 1751, 1993, 2007, 1765, 1753, 1995, 2009, 1767, 1892, 2002, 1897, 1760, 1893, 2003, 1898, 1761, 1752, 1994, 2008, 1766
354, 1753, 1995, 2009, 1767, 1755, 1997, 2011, 1769, 1893, 2003, 1898, 1761, 1894, 2004, 1899, 1762, 1754, 1996, 2010, 1768
355, 1755, 1997, 2011, 1769, 1757, 1999, 2013, 1771, 1894, 2004, 1899, 1762, 1895, 2005, 1900, 1763, 1756, 1998, 2012, 1770
356, 1757, 1999, 2013, 1771, 1759, 2001, 2015, 1773, 1895, 2005, 1900, 1763, 1896, 2006, 1901, 1764, 1758, 2000, 2014, 1772
357, 1765, 2007, 2021, 1779, 1767, 2009, 2023, 1781, 1897, 2016, 1902, 1774, 1898, 2017, 1903, 1775, 1766, 2008, 2022, 1780
358, 1767, 2009, 2023, 1781, 1769, 2011, 2025, 1783, 1898, 2017, 1903, 1775, 1899, 2018, 1904, 1776, 1768, 2010, 2024, 1782
359, 1769, 2011, 2025, 1783, 1771, 2013, 2027, 1785, 1899, 2018, 1904, 1776, 1900, 2019, 1905, 1777, 1770, 2012, 2026, 1784
360, 1771, 2013, 2027, 1785, 1773, 2015, 2029, 1787, 1900, 2019, 1905, 1777, 1901, 2020, 1906, 1778, 1772, 2014, 2028, 1786
361, 1779, 2021, 2035, 1793, 1781, 2023, 2037, 1795, 1902, 2030, 1907, 1788, 1903, 2031, 1908, 1789, 1780, 2022, 2036, 1794
362, 1781, 2023, 2037, 1795, 1783, 2025, 2039, 1797, 1903, 2031, 1908, 1789, 1904, 2032, 1909, 1790, 1782, 2024, 2038, 1796
363, 1783, 2025, 2039, 1797, 1785, 2027, 2041, 1799, 1904, 2032, 1909, 1790, 1905, 2033, 1910, 1791, 1784, 2026, 2040, 1798
364, 1785, 2027, 2041, 1799, 1787, 2029, 2043, 1801, 1905, 2033, 1910, 1791, 1906, 2034, 1911, 1792, 1786, 2028, 2042, 1800
365, 1793, 2035, 2049, 1807, 1795, 2037, 2051, 1809, 1907, 2044, 1912, 1802, 1908, 2045, 1913, 1803, 1794, 2036, 2050, 1808
366, 1795, 2037, 2051, 1809, 1797, 2039, 2053, 1811, 1908, 2045, 1913, 1803, 1909, 2046, 1914, 1804, 1796, 2038, 2052, 1810
367, 1797, 2039, 2053, 1811, 1799, 2041, 2055, 1813, 1909, 2046, 1914, 1804, 1910, 2047, 1915, 1805, 1798, 2040, 2054, 1812
368, 1799, 2041, 2055, 1813, 1801, 2043, 2057, 1815, 1910, 2047, 1915, 1805, 1911, 2048, 1916, 1806, 1800, 2042, 2056, 1814
369, 1807, 2049, 2063, 1821, 1809, 2051, 2065, 1823, 1912, 2058, 1917, 1816, 1913, 2059, 1918, 1817, 1808, 2050, 2064, 1822
370, 1809, 2051, 2065, 1823, 1811, 2053, 2067, 1825, 1913, 2059, 1918, 1817, 1914, 2060, 1919, 1818, 1810, 2052, 2066, 1824
371, 1811, 2053, 2067, 1825, 1813, 2055, 2069, 1827, 1914, 2060, 1919, 1818, 1915, 2061, 1920, 1819, 1812, 2054, 2068, 1826
372, 1813, 2055, 2069, 1827, 1815, 2057, 2071, 1829, 1915, 2061, 1920, 1819, 1916, 2062, 1921, 1820, 1814, 2056, 2070, 1828
373, 1821, 2063, 2077, 1835, 1823, 2065, 2079, 1837, 1917, 2072, 1922, 1830, 1918, 2073, 1923, 1831, 1822, 2064, 2078, 1836
374, 1823, 2065, 2079, 1837, 1825, 2067, 2081, 1839, 1918, 2073, 1923, 1831, 1919, 2074, 1924, 1832, 1824, 2066, 2080, 1838
375, 1825, 2067, 2081, 1839, 1827, 2069, 2083, 1841, 1919, 2074, 1924, 1832, 1920, 2075, 1925, 1833, 1826, 2068, 2082, 1840
376, 1827, 2069, 2083, 1841, 1829, 2071, 2085, 1843, 1920, 2075, 1925, 1833, 1921, 2076, 1926, 1834, 1828, 2070, 2084, 1842
377, 1835, 2077, 2091, 1849, 1837, 2079, 2093, 1851, 1922, 2086, 1927, 1844, 1923, 2087, 1928, 1845, 1836, 2078, 2092, 1850
378, 1837, 2079, 2093, 1851, 1839, 2081, 2095, 1853, 1923, 2087, 1928, 1845, 1924, 2088, 1929, 1846, 1838, 2080, 2094, 1852
379, 1839, 2081, 2095, 1853, 1841, 2083, 2097, 1855, 1924, 2088, 1929, 1846, 1925, 2089, 1930, 1847, 1840, 2082, 2096, 1854
380, 1841, 2083, 2097, 1855, 1843, 2085, 2099, 1857, 1925, 2089, 1930, 1847, 1926, 2090, 1931, 1848, 1842, 2084, 2098, 1856
381, 1849, 2091, 2105, 1863, 1851, 2093, 2107, 1865, 1927, 2100, 1932, 1858, 1928, 2101, 1933, 1859, 1850, 2092, 2106, 1864
382, 1851, 2093, 2107, 1865, 1853, 2095, 2109, 1867, 1928, 2101, 1933, 1859, 1929, 2102, 1934, 1860, 1852, 2094, 2108, 1866
383, 1853, 2095, 2109, 1867, 1855, 2097, 2111, 1869, 1929, 2102, 1934, 1860, 1930, 2103, 1935, 1861, 1854, 2096, 2110, 1868
384, 1855, 2097, 2111, 1869, 1857, 2099, 2113, 1871, 1930, 2103, 1935, 1861, 1931, 2104, 1936, 1862, 1856, 2098, 2112, 1870
*ELSET, ELSET=TOP
4, 8, 12, 16, 20, 24, 28, 32, 36, 40, 44, 48
52, 56, 60, 64, 68, 72, 76, 80, 84, 88, 92, 96
100, 104, 108, 112, 116, 120, 124, 128, 132, 136, 140, 144
148, 152, 156, 160, 164, 168, 172, 176, 180, 184, 188, 192
196, 200, 204, 208, 212, 216, 220, 224, 228, 232, 236, 240
244, 248, 252, 256, 260, 264, 268, 272, 276, 280, 284, 288
292, 296, 300, 304, 308, 312, 316, 320, 324, 328, 332, 336
340, 344, 348, 352, 356, 360, 364, 368, 372, 376, 380, 384
*NSET, NSET=D
9
*NSET, NSET=YS
1, 2, 3, 4, 5, 6, 7, 8, 9, 178, 179, 180
181, 182, 243, 244, 245, 246, 247, 248, 249, 250, 251, 420
421, 422, 423, 424, 485, 486, 487, 488, 489, 490, 491, 492
493, 662, 663, 664, 665, 666, 727, 728, 729, 730, 731, 732
733, 734, 735, 904, 905, 906, 907, 908, 969, 970, 971, 972
973, 974, 975, 976, 977, 1146, 1147, 1148, 1149, 1150, 1211, 1212
1213, 1214, 1215, 1216, 1217, 1218, 1219, 1388, 1389, 1390, 1391, 1392
1453, 1454, 1455, 1456, 1457, 1458, 1459, 1460, 1461, 1630, 1631, 1632
1633, 1634, 1695, 1696, 1697, 1698, 1699, 1700, 1701, 1702, 1703, 1872
1873, 1874, 1875, 1876, 1937, 1938, 1939, 1940, 1941, 1942, 1943, 1944
1945
*NSET, NSET=XS
169, 170, 171, 172, 173, 174, 175, 176, 177, 238, 239, 240
241, 242, 411, 412, 413, 414, 415, 416, 417, 418, 419, 480
481, 482, 483, 484, 653, 654, 655, 656, 657, 658, 659, 660
661, 722, 723, 724, 725, 726, 895, 896, 897, 898, 899, 900
901, 902, 903, 964, 965, 966, 967, 968, 1137, 1138, 1139, 1140
1141, 1142, 1143, 1144, 1145, 1206, 1207, 1208, 1209, 1210, 1379, 1380
1381, 1382, 1383, 1384, 1385, 1386, 1387, 1448, 1449, 1450, 1451, 1452
1621, 1622, 1623, 1624, 1625, 1626, 1627, 1628, 1629, 1690, 1691, 1692
1693, 1694, 1863, 1864, 1865, 1866, 1867, 1868, 1869, 1870, 1871, 1932
1933, 1934, 1935, 1936, 2105, 2106, 2107, 2108, 2109, 2110, 2111, 2112
2113
*NSET, NSET=OUTER
1937, 1938, 1939, 1940, 1941, 1942, 1943, 1944, 1945, 1946, 1947, 1948
1949, 1950, 1951, 1952, 1953, 1954, 1955, 1956, 1957, 1958, 1959, 1960
1961, 1962, 1963, 1964, 1965, 1966, 1967, 1968, 1969, 1970, 1971, 1972
1973, 1974, 1975, 1976, 1977, 1978, 1979, 1980, 1981, 1982, 1983, 1984
1985, 1986, 1987, 1988, 1989, 1990, 1991, 1992, 1993, 1994, 1995, 1996
1997, 1998, 1999, 2000, 2001, 2002, 2003, 2004, 2005, 2006, 2007, 2008
2009, 2010, 2011, 2012, 2013, 2014, 2015, 2016, 2017, 2018, 2019, 2020
2021, 2022, 2023, 2024, 2025, 2026, 2027, 2028, 2029, 2030, 2031, 2032
2033, 2034, 2035, 2036, 2037, 2038, 2039, 2040, 2041, 2042, 2043, 2044
2045, 2046, 2047, 2048, 2049, 2050, 2051, 2052, 2053, 2054, 2055, 2056
2057, 2058, 2059, 2060, 2061, 2062, 2063, 2064, 2065, 2066, 2067, 2068
2069, 2070, 2071, 2072, 2073, 2074, 2075, 2076, 2077, 2078, 2079, 2080
2081, 2082, 2083, 2084, 2085, 2086, 2087, 2088, 2089, 2090, 2091, 2092
2093, 2094, 2095, 2096, 2097, 2098, 2099, 2100, 2101, 2102, 2103, 2104
2105, 2106, 2107, 2108, 2109, 2110, 2111, 2112, 2113
*NSET, NSET=OMID
1941, 1948, 1955, 1962, 1969, 1976, 1983, 1990, 1997, 2004, 2011, 2018
2025, 2032, 2039, 2046, 2053, 2060, 2067, 2074, 2081, 2088, 2095, 2102
2109
*MATERIAL, NAME=STEEL
*ELASTIC
210000, 0.3
*SOLID SECTION, ELSET=PLATE, MATERIAL=STEEL
*BOUNDARY
YS, 2, 2
XS, 1, 1
OUTER, 1, 2
OMID, 3, 3
*STEP
*STATIC
*DLOAD
TOP, P2, 1
*NODE FILE
U
*EL FILE
S
*END STEP
