*HEADING
NAFEMS LE1 elliptic membrane (plane stress, quarter)
Target: syy(D) = 92.7 MPa at the inner point on +x
** mesh CPS8 8 radial x 24 hoop, node D = 1
*NODE
1, 2000, 0, 0
2, 1998.9292, 32.719083, 0
3, 1995.7178, 65.403129, 0
4, 1990.3695, 98.01714, 0
5, 1982.8897, 130.52619, 0
6, 1973.2867, 162.89547, 0
7, 1961.5706, 195.09032, 0
8, 1947.754, 227.07626, 0
9, 1931.8517, 258.81905, 0
10, 1913.8807, 290.28468, 0
11, 1893.8603, 321.43947, 0
12, 1871.8119, 352.25005, 0
13, 1847.7591, 382.68343, 0
14, 1821.7276, 412.70703, 0
15, 1793.7455, 442.28869, 0
16, 1763.8425, 471.39674, 0
17, 1732.0508, 500, 0
18, 1698.4044, 528.06785, 0
19, 1662.9392, 555.57023, 0
20, 1625.6934, 582.4777, 0
21, 1586.7067, 608.76143, 0
22, 1546.0209, 634.39328, 0
23, 1503.6796, 659.34582, 0
24, 1459.7281, 683.5923, 0
25, 1414.2136, 707.10678, 0
26, 1367.1846, 729.86407, 0
27, 1318.6916, 751.83981, 0
28, 1268.7866, 773.01045, 0
29, 1217.5229, 793.35334, 0
30, 1164.9554, 812.84668, 0
31, 1111.1405, 831.46961, 0
32, 1056.1357, 849.20218, 0
33, 1000, 866.0254, 0
34, 942.79347, 881.92126, 0
35, 884.57738, 896.87274, 0
36, 825.41406, 910.86382, 0
37, 765.36686, 923.87953, 0
38, 704.5001, 935.90593, 0
39, 642.87893, 946.93013, 0
40, 580.56935, 956.94034, 0
41, 517.63809, 965.92583, 0
42, 454.15253, 973.87698, 0
43, 390.18064, 980.78528, 0
44, 325.79095, 986.64333, 0
45, 261.05238, 991.44486, 0
46, 196.03428, 995.18473, 0
47, 130.80626, 997.85892, 0
48, 65.438166, 999.46459, 0
49, 1.2246468e-13, 1000, 0
50, 2078.125, 0, 0
51, 2073.6756, 72.556596, 0
52, 2060.3464, 144.80249, 0
53, 2038.1944, 216.42833, 0
54, 2007.3146, 287.12738, 0
55, 1967.8392, 356.59691, 0
56, 1919.9372, 424.53943, 0
57, 1863.8137, 490.66402, 0
58, 1799.709, 554.6875, 0
59, 1727.8978, 616.33573, 0
60, 1648.6874, 675.34471, 0
61, 1562.4171, 731.46176, 0
62, 1469.4563, 784.44659, 0
63, 1370.203, 834.07229, 0
64, 1265.0823, 880.12636, 0
65, 1154.5444, 922.4116, 0
66, 1039.0625, 960.74693, 0
67, 919.13118, 994.9682, 0
68, 795.26401, 1024.9289, 0
69, 667.99139, 1050.5006, 0
70, 537.85833, 1071.574, 0
71, 405.42208, 1088.0587, 0
72, 271.24974, 1099.8841, 0
73, 135.91588, 1106.9997, 0
74, 1.2724846e-13, 1109.375, 0
75, 2156.25, 0, 0
76, 2155.0955, 39.876382, 0
77, 2151.6333, 79.710064, 0
78, 2145.8671, 119.45839, 0
79, 2137.803, 159.0788, 0
80, 2127.4497, 198.52886, 0
81, 2114.8183, 237.76633, 0
82, 2099.9222, 276.7492, 0
83, 2082.7776, 315.43571, 0
84, 2063.4026, 353.78445, 0
85, 2041.8181, 391.75435, 0
86, 2018.0472, 429.30475, 0
87, 1992.1152, 466.39543, 0
88, 1964.0501, 502.98669, 0
89, 1933.8818, 539.03934, 0
90, 1901.6427, 574.51477, 0
91, 1867.3673, 609.375, 0
92, 1831.0922, 643.58269, 0
93, 1792.8564, 677.10122, 0
94, 1752.7007, 709.89469, 0
95, 1710.6681, 741.92799, 0
96, 1666.8038, 773.16682, 0
97, 1621.1546, 803.57771, 0
98, 1573.7694, 833.12812, 0
99, 1524.699, 861.78639, 0
100, 1473.9959, 889.52184, 0
101, 1421.7144, 916.30477, 0
102, 1367.9105, 942.10649, 0
103, 1312.6418, 966.89938, 0
104, 1255.9675, 990.6569, 0
105, 1197.9483, 1013.3536, 0
106, 1138.6463, 1034.9652, 0
107, 1078.125, 1055.4685, 0
108, 1016.4492, 1074.8415, 0
109, 953.68499, 1093.0637, 0
110, 889.89953, 1110.1153, 0
111, 825.16115, 1125.9782, 0
112, 759.53917, 1140.6353, 0
113, 693.10385, 1154.0711, 0
114, 625.92634, 1166.271, 0
115, 558.07857, 1177.2221, 0
116, 489.63319, 1186.9126, 0
117, 420.66351, 1195.3321, 0
118, 351.24336, 1202.4716, 0
119, 281.4471, 1208.3234, 0
120, 211.34946, 1212.8814, 0
121, 141.0255, 1216.1406, 0
122, 70.550522, 1218.0975, 0
123, 1.3203223e-13, 1218.75, 0
124, 2234.375, 0, 0
125, 2229.591, 86.863531, 0
126, 2215.2596, 173.3551, 0
127, 2191.4421, 259.10433, 0
128, 2158.2405, 343.74404, 0
129, 2115.797, 426.91179, 0
130, 2064.2933, 508.25143, 0
131, 2003.95, 587.41467, 0
132, 1935.0255, 664.0625, 0
133, 1857.8149, 737.86672, 0
134, 1772.6489, 808.51127, 0
135, 1679.8921, 875.69366, 0
136, 1579.9417, 939.12619, 0
137, 1473.2258, 998.53724, 0
138, 1360.2013, 1053.6724, 0
139, 1241.3522, 1104.2956, 0
140, 1117.1875, 1150.19, 0
141, 988.23879, 1191.1591, 0
142, 855.05829, 1227.0275, 0
143, 718.21631, 1257.6416, 0
144, 578.2988, 1282.8702, 0
145, 435.90494, 1302.6055, 0
146, 291.64446, 1316.7627, 0
147, 146.13512, 1325.2814, 0
148, 1.3681601e-13, 1328.125, 0
149, 2312.5, 0, 0
150, 2311.2619, 47.033682, 0
151, 2307.5488, 94.016998, 0
152, 2301.3647, 140.89964, 0
153, 2292.7162, 187.6314, 0
154, 2281.6127, 234.16224, 0
155, 2268.066, 280.44234, 0
156, 2252.0905, 326.42213, 0
157, 2233.7035, 372.05238, 0
158, 2212.9245, 417.28422, 0
159, 2189.7759, 462.06923, 0
160, 2164.2825, 506.35944, 0
161, 2136.4714, 550.10743, 0
162, 2106.3726, 593.26636, 0
163, 2074.0182, 635.78999, 0
164, 2039.4429, 677.63281, 0
165, 2002.6837, 718.75, 0
166, 1963.78, 759.09754, 0
167, 1922.7735, 798.63221, 0
168, 1879.708, 837.31169, 0
169, 1834.6296, 875.09455, 0
170, 1787.5867, 911.94035, 0
171, 1738.6296, 947.80961, 0
172, 1687.8107, 982.66393, 0
173, 1635.1844, 1016.466, 0
174, 1580.8072, 1049.1796, 0
175, 1524.7372, 1080.7697, 0
176, 1467.0345, 1111.2025, 0
177, 1407.7608, 1140.4454, 0
178, 1346.9797, 1168.4671, 0
179, 1284.7562, 1195.2376, 0
180, 1221.1569, 1220.7281, 0
181, 1156.25, 1244.9115, 0
182, 1090.105, 1267.7618, 0
183, 1022.7926, 1289.2546, 0
184, 954.38501, 1309.3667, 0
185, 884.95544, 1328.0768, 0
186, 814.57824, 1345.3648, 0
187, 743.32876, 1361.2121, 0
188, 671.28332, 1375.6017, 0
189, 598.51904, 1388.5184, 0
190, 525.11386, 1399.9482, 0
191, 451.14637, 1409.8788, 0
192, 376.69578, 1418.2998, 0
193, 301.84182, 1425.202, 0
194, 226.66464, 1430.578, 0
195, 151.24474, 1434.4222, 0
196, 75.662879, 1436.7303, 0
197, 1.4159979e-13, 1437.5, 0
198, 2390.625, 0, 0
199, 2385.5065, 101.17047, 0
200, 2370.1729, 201.9077, 0
201, 2344.6898, 301.78034, 0
202, 2309.1664, 400.36071, 0
203, 2263.7548, 497.22667, 0
204, 2208.6495, 591.96343, 0
205, 2144.0864, 684.16532, 0
206, 2070.342, 773.4375, 0
207, 1987.732, 859.3977, 0
208, 1896.6103, 941.67784, 0
209, 1797.367, 1019.9256, 0
210, 1690.4271, 1093.8058, 0
211, 1576.2486, 1163.0022, 0
212, 1455.3203, 1227.2184, 0
213, 1328.1601, 1286.1796, 0
214, 1195.3125, 1339.633, 0
215, 1057.3464, 1387.35, 0
216, 914.85258, 1429.1262, 0
217, 768.44122, 1464.7825, 0
218, 618.73928, 1494.1665, 0
219, 466.3878, 1517.1522, 0
220, 312.03918, 1533.6413, 0
221, 156.35436, 1543.563, 0
222, 1.4638356e-13, 1546.875, 0
223, 2468.75, 0, 0
224, 2467.4282, 54.190981, 0
225, 2463.4642, 108.32393, 0
226, 2456.8623, 162.34089, 0
227, 2447.6295, 216.18401, 0
228, 2435.7757, 269.79563, 0
229, 2421.3137, 323.11835, 0
230, 2404.2588, 376.09506, 0
231, 2384.6294, 428.66904, 0
232, 2362.4465, 480.784, 0
233, 2337.7338, 532.38411, 0
234, 2310.5178, 583.41414, 0
235, 2280.8276, 633.81943, 0
236, 2248.6951, 683.54602, 0
237, 2214.1546, 732.54064, 0
238, 2177.2431, 780.75085, 0
239, 2138.0002, 828.125, 0
240, 2096.4679, 874.61238, 0
241, 2052.6906, 920.1632, 0
242, 2006.7153, 964.72869, 0
243, 1958.5911, 1008.2611, 0
244, 1908.3696, 1050.7139, 0
245, 1856.1045, 1092.0415, 0
246, 1801.8519, 1132.1998, 0
247, 1745.6699, 1171.1456, 0
248, 1687.6185, 1208.8374, 0
249, 1627.76, 1245.2347, 0
250, 1566.1584, 1280.2986, 0
251, 1502.8798, 1313.9915, 0
252, 1437.9918, 1346.2773, 0
253, 1371.564, 1377.1215, 0
254, 1303.6675, 1406.4911, 0
255, 1234.375, 1434.3546, 0
256, 1163.7607, 1460.6821, 0
257, 1091.9002, 1485.4455, 0
258, 1018.8705, 1508.6182, 0
259, 944.74972, 1530.1755, 0
260, 869.61731, 1550.0942, 0
261, 793.55368, 1568.353, 0
262, 716.6403, 1584.9324, 0
263, 638.95952, 1599.8146, 0
264, 560.59452, 1612.9837, 0
265, 481.62923, 1624.4256, 0
266, 402.1482, 1634.128, 0
267, 322.23654, 1642.0806, 0
268, 241.97982, 1648.2747, 0
269, 161.46398, 1652.7038, 0
270, 80.775236, 1655.3632, 0
271, 1.5116734e-13, 1656.25, 0
272, 2546.875, 0, 0
273, 2541.4219, 115.4774, 0
274, 2525.0861, 230.46031, 0
275, 2497.9375, 344.45635, 0
276, 2460.0923, 456.97738, 0
277, 2411.7127, 567.54156, 0
278, 2353.0057, 675.67544, 0
279, 2284.2228, 780.91597, 0
280, 2205.6585, 882.8125, 0
281, 2117.6492, 980.92869, 0
282, 2020.5718, 1074.8444, 0
283, 1914.842, 1164.1575, 0
284, 1800.9126, 1248.4854, 0
285, 1679.2714, 1327.4672, 0
286, 1550.4393, 1400.7645, 0
287, 1414.9679, 1468.0635, 0
288, 1273.4375, 1529.0761, 0
289, 1126.454, 1583.5409, 0
290, 974.64687, 1631.2248, 0
291, 818.66614, 1671.9235, 0
292, 659.17976, 1705.4628, 0
293, 496.87066, 1731.699, 0
294, 332.4339, 1750.5198, 0
295, 166.57359, 1761.8447, 0
296, 1.5595112e-13, 1765.625, 0
297, 2625, 0, 0
298, 2623.5945, 61.34828, 0
299, 2619.3797, 122.63087, 0
300, 2612.3599, 183.78214, 0
301, 2602.5428, 244.73661, 0
302, 2589.9387, 305.42901, 0
303, 2574.5614, 365.79435, 0
304, 2556.4271, 425.76799, 0
305, 2535.5553, 485.28571, 0
306, 2511.9684, 544.28377, 0
307, 2485.6916, 602.699, 0
308, 2456.7531, 660.46884, 0
309, 2425.1838, 717.53144, 0
310, 2391.0175, 773.82568, 0
311, 2354.2909, 829.29129, 0
312, 2315.0433, 883.86888, 0
313, 2273.3167, 937.5, 0
314, 2229.1557, 990.12722, 0
315, 2182.6077, 1041.6942, 0
316, 2133.7225, 1092.1457, 0
317, 2082.5525, 1141.4277, 0
318, 2029.1524, 1189.4874, 0
319, 1973.5795, 1236.2734, 0
320, 1915.8932, 1281.7356, 0
321, 1856.1553, 1325.8252, 0
322, 1794.4298, 1368.4951, 0
323, 1730.7828, 1409.6996, 0
324, 1665.2824, 1449.3946, 0
325, 1597.9988, 1487.5375, 0
326, 1529.004, 1524.0875, 0
327, 1458.3719, 1559.0055, 0
328, 1386.1781, 1592.2541, 0
329, 1312.5, 1623.7976, 0
330, 1237.4164, 1653.6024, 0
331, 1161.0078, 1681.6364, 0
332, 1083.356, 1707.8697, 0
333, 1004.544, 1732.2741, 0
334, 924.65638, 1754.8236, 0
335, 843.7786, 1775.494, 0
336, 761.99728, 1794.2631, 0
337, 679.39999, 1811.1109, 0
338, 596.07519, 1826.0193, 0
339, 512.1121, 1838.9724, 0
340, 427.60062, 1849.9562, 0
341, 342.63125, 1858.9591, 0
342, 257.29499, 1865.9714, 0
343, 171.68321, 1870.9855, 0
344, 85.887592, 1873.9961, 0
345, 1.6073489e-13, 1875, 0
346, 2703.125, 0, 0
347, 2697.3374, 129.78433, 0
348, 2679.9994, 259.01291, 0
349, 2651.1852, 387.13236, 0
350, 2611.0182, 513.59404, 0
351, 2559.6705, 637.85644, 0
352, 2497.3619, 759.38744, 0
353, 2424.3591, 877.66662, 0
354, 2340.9749, 992.1875, 0
355, 2247.5663, 1102.4597, 0
356, 2144.5332, 1208.011, 0
357, 2032.317, 1308.3894, 0
358, 1911.398, 1403.165, 0
359, 1782.2942, 1491.9321, 0
360, 1645.5582, 1574.3105, 0
361, 1501.7758, 1649.9475, 0
362, 1351.5625, 1718.5192, 0
363, 1195.5616, 1779.7318, 0
364, 1034.4412, 1833.3234, 0
365, 868.89105, 1879.0645, 0
366, 699.62023, 1916.7591, 0
367, 527.35353, 1946.2458, 0
368, 352.82861, 1967.3984, 0
369, 176.79283, 1980.1263, 0
370, 1.6551867e-13, 1984.375, 0
371, 2781.25, 0, 0
372, 2779.7609, 68.50558, 0
373, 2775.2951, 136.9378, 0
374, 2767.8575, 205.22339, 0
375, 2757.456, 273.28921, 0
376, 2744.1018, 341.0624, 0
377, 2727.8091, 408.47036, 0
378, 2708.5953, 475.44093, 0
379, 2686.4812, 541.90238, 0
380, 2661.4903, 607.78354, 0
381, 2633.6494, 673.01388, 0
382, 2602.9884, 737.52354, 0
383, 2569.5399, 801.24344, 0
384, 2533.34, 864.10534, 0
385, 2494.4273, 926.04195, 0
386, 2452.8435, 986.98692, 0
387, 2408.6332, 1046.875, 0
388, 2361.8436, 1105.6421, 0
389, 2312.5249, 1163.2252, 0
390, 2260.7298, 1219.5627, 0
391, 2206.514, 1274.5942, 0
392, 2149.9353, 1328.2609, 0
393, 2091.0545, 1380.5053, 0
394, 2029.9345, 1431.2714, 0
395, 1966.6407, 1480.5048, 0
396, 1901.2411, 1528.1529, 0
397, 1833.8055, 1574.1646, 0
398, 1764.4063, 1618.4906, 0
399, 1693.1177, 1661.0836, 0
400, 1620.0161, 1701.8977, 0
401, 1545.1797, 1740.8895, 0
402, 1468.6887, 1778.0171, 0
403, 1390.625, 1813.2407, 0
404, 1311.0722, 1846.5226, 0
405, 1230.1154, 1877.8273, 0
406, 1147.8414, 1907.1211, 0
407, 1064.3383, 1934.3728, 0
408, 979.69545, 1959.553, 0
409, 894.00351, 1982.635, 0
410, 807.35426, 2003.5938, 0
411, 719.84047, 2022.4072, 0
412, 631.55586, 2039.0549, 0
413, 542.59496, 2053.5192, 0
414, 453.05304, 2065.7845, 0
415, 363.02597, 2075.8377, 0
416, 272.61017, 2083.668, 0
417, 181.90245, 2089.2671, 0
418, 90.999949, 2092.629, 0
419, 1.7030245e-13, 2093.75, 0
420, 2859.375, 0, 0
421, 2853.2529, 144.09127, 0
422, 2834.9127, 287.56552, 0
423, 2804.4329, 429.80837, 0
424, 2761.9442, 570.21071, 0
425, 2707.6283, 708.17132, 0
426, 2641.718, 843.09944, 0
427, 2564.4955, 974.41727, 0
428, 2476.2914, 1101.5625, 0
429, 2377.4834, 1223.9907, 0
430, 2268.4947, 1341.1775, 0
431, 2149.7919, 1452.6212, 0
432, 2021.8835, 1557.8446, 0
433, 1885.3169, 1656.3971, 0
434, 1740.6772, 1747.8566, 0
435, 1588.5836, 1831.8315, 0
436, 1429.6875, 1907.9622, 0
437, 1264.6692, 1975.9228, 0
438, 1094.2354, 2035.4221, 0
439, 919.11597, 2086.2054, 0
440, 740.06071, 2128.0553, 0
441, 557.83639, 2160.7926, 0
442, 373.22333, 2184.277, 0
443, 187.01207, 2198.4079, 0
444, 1.7508622e-13, 2203.125, 0
445, 2937.5, 0, 0
446, 2935.9272, 75.662879, 0
447, 2931.2106, 151.24474, 0
448, 2923.3551, 226.66464, 0
449, 2912.3693, 301.84182, 0
450, 2898.2648, 376.69578, 0
451, 2881.0568, 451.14637, 0
452, 2860.7636, 525.11386, 0
453, 2837.4071, 598.51904, 0
454, 2811.0122, 671.28332, 0
455, 2781.6073, 743.32876, 0
456, 2749.2237, 814.57824, 0
457, 2713.8961, 884.95544, 0
458, 2675.6625, 954.38501, 0
459, 2634.5637, 1022.7926, 0
460, 2590.6437, 1090.105, 0
461, 2543.9496, 1156.25, 0
462, 2494.5314, 1221.1569, 0
463, 2442.442, 1284.7562, 0
464, 2387.7371, 1346.9797, 0
465, 2330.4754, 1407.7608, 0
466, 2270.7182, 1467.0345, 0
467, 2208.5294, 1524.7372, 0
468, 2143.9757, 1580.8072, 0
469, 2077.1262, 1635.1844, 0
470, 2008.0524, 1687.8107, 0
471, 1936.8283, 1738.6296, 0
472, 1863.5303, 1787.5867, 0
473, 1788.2367, 1834.6296, 0
474, 1711.0282, 1879.708, 0
475, 1631.9876, 1922.7735, 0
476, 1551.1993, 1963.78, 0
477, 1468.75, 2002.6837, 0
478, 1384.7279, 2039.4429, 0
479, 1299.223, 2074.0182, 0
480, 1212.3269, 2106.3726, 0
481, 1124.1326, 2136.4714, 0
482, 1034.7345, 2164.2825, 0
483, 944.22843, 2189.7759, 0
484, 852.71124, 2212.9245, 0
485, 760.28094, 2233.7035, 0
486, 667.03652, 2252.0905, 0
487, 573.07782, 2268.066, 0
488, 478.50545, 2281.6127, 0
489, 383.42069, 2292.7162, 0
490, 287.92535, 2301.3647, 0
491, 192.12169, 2307.5488, 0
492, 96.112306, 2311.2619, 0
493, 1.7987e-13, 2312.5, 0
494, 3015.625, 0, 0
495, 3009.1683, 158.3982, 0
496, 2989.8259, 316.11812, 0
497, 2957.6806, 472.48437, 0
498, 2912.8701, 626.82737, 0
499, 2855.5862, 778.48621, 0
500, 2786.0742, 926.81144, 0
501, 2704.6319, 1071.1679, 0
502, 2611.6079, 1210.9375, 0
503, 2507.4005, 1345.5217, 0
504, 2392.4562, 1474.3441, 0
505, 2267.2669, 1596.8531, 0
506, 2132.3689, 1712.5242, 0
507, 1988.3397, 1820.862, 0
508, 1835.7962, 1921.4026, 0
509, 1675.3915, 2013.7155, 0
510, 1507.8125, 2097.4053, 0
511, 1333.7768, 2172.1137, 0
512, 1154.0297, 2237.5207, 0
513, 969.34089, 2293.3464, 0
514, 780.50118, 2339.3516, 0
515, 588.31925, 2375.3394, 0
516, 393.61805, 2401.1555, 0
517, 197.23131, 2416.6896, 0
518, 1.8465378e-13, 2421.875, 0
519, 3093.75, 0, 0
520, 3092.0936, 82.820178, 0
521, 3087.126, 165.55167, 0
522, 3078.8527, 248.10589, 0
523, 3067.2825, 330.39442, 0
524, 3052.4278, 412.32917, 0
525, 3034.3045, 493.82238, 0
526, 3012.9319, 574.78679, 0
527, 2988.333, 655.13571, 0
528, 2960.5342, 734.78309, 0
529, 2929.5651, 813.64365, 0
530, 2895.459, 891.63293, 0
531, 2858.2523, 968.66744, 0
532, 2817.985, 1044.6647, 0
533, 2774.7, 1119.5432, 0
534, 2728.4439, 1193.223, 0
535, 2679.2661, 1265.625, 0
536, 2627.2192, 1336.6717, 0
537, 2572.3591, 1406.2872, 0
538, 2514.7444, 1474.3967, 0
539, 2454.4369, 1540.9274, 0
540, 2391.5011, 1605.808, 0
541, 2326.0044, 1668.9691, 0
542, 2258.017, 1730.343, 0
543, 2187.6116, 1789.864, 0
544, 2114.8637, 1847.4684, 0
545, 2039.8511, 1903.0945, 0
546, 1962.6542, 1956.6827, 0
547, 1883.3557, 2008.1756, 0
548, 1802.0404, 2057.5182, 0
549, 1718.7954, 2104.6575, 0
550, 1633.7099, 2149.543, 0
551, 1546.875, 2192.1268, 0
552, 1458.3837, 2232.3632, 0
553, 1368.3306, 2270.2091, 0
554, 1276.8124, 2305.6241, 0
555, 1183.9269, 2338.5701, 0
556, 1089.7736, 2369.0119, 0
557, 994.45335, 2396.9169, 0
558, 898.06822, 2422.2552, 0
559, 800.72142, 2444.9997, 0
560, 702.51719, 2465.1261, 0
561, 603.56068, 2482.6127, 0
562, 503.95787, 2497.4409, 0
563, 403.81541, 2509.5948, 0
564, 303.24053, 2519.0613, 0
565, 202.34093, 2525.8304, 0
566, 101.22466, 2529.8947, 0
567, 1.8943755e-13, 2531.25, 0
568, 3171.875, 0, 0
569, 3165.0838, 172.70514, 0
570, 3144.7392, 344.67073, 0
571, 3110.9283, 515.16038, 0
572, 3063.796, 683.44404, 0
573, 3003.544, 848.80109, 0
574, 2930.4304, 1010.5234, 0
575, 2844.7682, 1167.9186, 0
576, 2746.9243, 1320.3125, 0
577, 2637.3177, 1467.0526, 0
578, 2516.4176, 1607.5106, 0
579, 2384.7419, 1741.085, 0
580, 2242.8543, 1867.2038, 0
581, 2091.3625, 1985.327, 0
582, 1930.9152, 2094.9487, 0
583, 1762.1993, 2195.5994, 0
584, 1585.9375, 2286.8483, 0
585, 1402.8844, 2368.3046, 0
586, 1213.824, 2439.6194, 0
587, 1019.5658, 2500.4874, 0
588, 820.94166, 2550.6479, 0
589, 618.80212, 2589.8861, 0
590, 414.01277, 2618.0341, 0
591, 207.45055, 2634.9712, 0
592, 1.9422133e-13, 2640.625, 0
593, 3250, 0, 0
594, 3248.2599, 89.977478, 0
595, 3243.0415, 179.85861, 0
596, 3234.3504, 269.54714, 0
597, 3222.1958, 358.94703, 0
598, 3206.5908, 447.96255, 0
599, 3187.5522, 536.49839, 0
600, 3165.1002, 624.45972, 0
601, 3139.2589, 711.75237, 0
602, 3110.0561, 798.28286, 0
603, 3077.5229, 883.95853, 0
604, 3041.6943, 968.68763, 0
605, 3002.6085, 1052.3794, 0
606, 2960.3074, 1134.9443, 0
607, 2914.8364, 1216.2939, 0
608, 2866.2441, 1296.341, 0
609, 2814.5826, 1375, 0
610, 2759.9071, 1452.1866, 0
611, 2702.2762, 1527.8181, 0
612, 2641.7517, 1601.8137, 0
613, 2578.3984, 1674.0939, 0
614, 2512.284, 1744.5815, 0
615, 2443.4794, 1813.201, 0
616, 2372.0582, 1879.8788, 0
617, 2298.097, 1944.5436, 0
618, 2221.675, 2007.1262, 0
619, 2142.8739, 2067.5595, 0
620, 2061.7782, 2125.7787, 0
621, 1978.4746, 2181.7217, 0
622, 1893.0525, 2235.3284, 0
623, 1805.6033, 2286.5414, 0
624, 1716.2205, 2335.306, 0
625, 1625, 2381.5699, 0
626, 1532.0394, 2425.2835, 0
627, 1437.4382, 2466.4, 0
628, 1341.2978, 2504.8755, 0
629, 1243.7212, 2540.6687, 0
630, 1144.8127, 2573.7413, 0
631, 1044.6783, 2604.0579, 0
632, 943.4252, 2631.5859, 0
633, 841.1619, 2656.296, 0
634, 737.99785, 2678.1617, 0
635, 634.04355, 2697.1595, 0
636, 529.41029, 2713.2692, 0
637, 424.21012, 2726.4734, 0
638, 318.55571, 2736.758, 0
639, 212.56017, 2744.112, 0
640, 106.33702, 2748.5276, 0
641, 1.990051e-13, 2750, 0
*ELEMENT, TYPE=CPS8, ELSET=MEM
1, 1, 75, 77, 3, 50, 76, 51, 2
2, 3, 77, 79, 5, 51, 78, 52, 4
3, 5, 79, 81, 7, 52, 80, 53, 6
4, 7, 81, 83, 9, 53, 82, 54, 8
5, 9, 83, 85, 11, 54, 84, 55, 10
6, 11, 85, 87, 13, 55, 86, 56, 12
7, 13, 87, 89, 15, 56, 88, 57, 14
8, 15, 89, 91, 17, 57, 90, 58, 16
9, 17, 91, 93, 19, 58, 92, 59, 18
10, 19, 93, 95, 21, 59, 94, 60, 20
11, 21, 95, 97, 23, 60, 96, 61, 22
12, 23, 97, 99, 25, 61, 98, 62, 24
13, 25, 99, 101, 27, 62, 100, 63, 26
14, 27, 101, 103, 29, 63, 102, 64, 28
15, 29, 103, 105, 31, 64, 104, 65, 30
16, 31, 105, 107, 33, 65, 106, 66, 32
17, 33, 107, 109, 35, 66, 108, 67, 34
18, 35, 109, 111, 37, 67, 110, 68, 36
19, 37, 111, 113, 39, 68, 112, 69, 38
20, 39, 113, 115, 41, 69, 114, 70, 40
21, 41, 115, 117, 43, 70, 116, 71, 42
22, 43, 117, 119, 45, 71, 118, 72, 44
23, 45, 119, 121, 47, 72, 120, 73, 46
24, 47, 121, 123, 49, 73, 122, 74, 48
25, 75, 149, 151, 77, 124, 150, 125, 76
26, 77, 151, 153, 79, 125, 152, 126, 78
27, 79, 153, 155, 81, 126, 154, 127, 80
28, 81, 155, 157, 83, 127, 156, 128, 82
29, 83, 157, 159, 85, 128, 158, 129, 84
30, 85, 159, 161, 87, 129, 160, 130, 86
31, 87, 161, 163, 89, 130, 162, 131, 88
32, 89, 163, 165, 91, 131, 164, 132, 90
33, 91, 165, 167, 93, 132, 166, 133, 92
34, 93, 167, 169, 95, 133, 168, 134, 94
35, 95, 169, 171, 97, 134, 170, 135, 96
36, 97, 171, 173, 99, 135, 172, 136, 98
37, 99, 173, 175, 101, 136, 174, 137, 100
38, 101, 175, 177, 103, 137, 176, 138, 102
39, 103, 177, 179, 105, 138, 178, 139, 104
40, 105, 179, 181, 107, 139, 180, 140, 106
41, 107, 181, 183, 109, 140, 182, 141, 108
42, 109, 183, 185, 111, 141, 184, 142, 110
43, 111, 185, 187, 113, 142, 186, 143, 112
44, 113, 187, 189, 115, 143, 188, 144, 114
45, 115, 189, 191, 117, 144, 190, 145, 116
46, 117, 191, 193, 119, 145, 192, 146, 118
47, 119, 193, 195, 121, 146, 194, 147, 120
48, 121, 195, 197, 123, 147, 196, 148, 122
49, 149, 223, 225, 151, 198, 224, 199, 150
50, 151, 225, 227, 153, 199, 226, 200, 152
51, 153, 227, 229, 155, 200, 228, 201, 154
52, 155, 229, 231, 157, 201, 230, 202, 156
53, 157, 231, 233, 159, 202, 232, 203, 158
54, 159, 233, 235, 161, 203, 234, 204, 160
55, 161, 235, 237, 163, 204, 236, 205, 162
56, 163, 237, 239, 165, 205, 238, 206, 164
57, 165, 239, 241, 167, 206, 240, 207, 166
58, 167, 241, 243, 169, 207, 242, 208, 168
59, 169, 243, 245, 171, 208, 244, 209, 170
60, 171, 245, 247, 173, 209, 246, 210, 172
61, 173, 247, 249, 175, 210, 248, 211, 174
62, 175, 249, 251, 177, 211, 250, 212, 176
63, 177, 251, 253, 179, 212, 252, 213, 178
64, 179, 253, 255, 181, 213, 254, 214, 180
65, 181, 255, 257, 183, 214, 256, 215, 182
66, 183, 257, 259, 185, 215, 258, 216, 184
67, 185, 259, 261, 187, 216, 260, 217, 186
68, 187, 261, 263, 189, 217, 262, 218, 188
69, 189, 263, 265, 191, 218, 264, 219, 190
70, 191, 265, 267, 193, 219, 266, 220, 192
71, 193, 267, 269, 195, 220, 268, 221, 194
72, 195, 269, 271, 197, 221, 270, 222, 196
73, 223, 297, 299, 225, 272, 298, 273, 224
74, 225, 299, 301, 227, 273, 300, 274, 226
75, 227, 301, 303, 229, 274, 302, 275, 228
76, 229, 303, 305, 231, 275, 304, 276, 230
77, 231, 305, 307, 233, 276, 306, 277, 232
78, 233, 307, 309, 235, 277, 308, 278, 234
79, 235, 309, 311, 237, 278, 310, 279, 236
80, 237, 311, 313, 239, 279, 312, 280, 238
81, 239, 313, 315, 241, 280, 314, 281, 240
82, 241, 315, 317, 243, 281, 316, 282, 242
83, 243, 317, 319, 245, 282, 318, 283, 244
84, 245, 319, 321, 247, 283, 320, 284, 246
85, 247, 321, 323, 249, 284, 322, 285, 248
86, 249, 323, 325, 251, 285, 324, 286, 250
87, 251, 325, 327, 253, 286, 326, 287, 252
88, 253, 327, 329, 255, 287, 328, 288, 254
89, 255, 329, 331, 257, 288, 330, 289, 256
90, 257, 331, 333, 259, 289, 332, 290, 258
91, 259, 333, 335, 261, 290, 334, 291, 260
92, 261, 335, 337, 263, 291, 336, 292, 262
93, 263, 337, 339, 265, 292, 338, 293, 264
94, 265, 339, 341, 267, 293, 340, 294, 266
95, 267, 341, 343, 269, 294, 342, 295, 268
96, 269, 343, 345, 271, 295, 344, 296, 270
97, 297, 371, 373, 299, 346, 372, 347, 298
98, 299, 373, 375, 301, 347, 374, 348, 300
99, 301, 375, 377, 303, 348, 376, 349, 302
100, 303, 377, 379, 305, 349, 378, 350, 304
101, 305, 379, 381, 307, 350, 380, 351, 306
102, 307, 381, 383, 309, 351, 382, 352, 308
103, 309, 383, 385, 311, 352, 384, 353, 310
104, 311, 385, 387, 313, 353, 386, 354, 312
105, 313, 387, 389, 315, 354, 388, 355, 314
106, 315, 389, 391, 317, 355, 390, 356, 316
107, 317, 391, 393, 319, 356, 392, 357, 318
108, 319, 393, 395, 321, 357, 394, 358, 320
109, 321, 395, 397, 323, 358, 396, 359, 322
110, 323, 397, 399, 325, 359, 398, 360, 324
111, 325, 399, 401, 327, 360, 400, 361, 326
112, 327, 401, 403, 329, 361, 402, 362, 328
113, 329, 403, 405, 331, 362, 404, 363, 330
114, 331, 405, 407, 333, 363, 406, 364, 332
115, 333, 407, 409, 335, 364, 408, 365, 334
116, 335, 409, 411, 337, 365, 410, 366, 336
117, 337, 411, 413, 339, 366, 412, 367, 338
118, 339, 413, 415, 341, 367, 414, 368, 340
119, 341, 415, 417, 343, 368, 416, 369, 342
120, 343, 417, 419, 345, 369, 418, 370, 344
121, 371, 445, 447, 373, 420, 446, 421, 372
122, 373, 447, 449, 375, 421, 448, 422, 374
123, 375, 449, 451, 377, 422, 450, 423, 376
124, 377, 451, 453, 379, 423, 452, 424, 378
125, 379, 453, 455, 381, 424, 454, 425, 380
126, 381, 455, 457, 383, 425, 456, 426, 382
127, 383, 457, 459, 385, 426, 458, 427, 384
128, 385, 459, 461, 387, 427, 460, 428, 386
129, 387, 461, 463, 389, 428, 462, 429, 388
130, 389, 463, 465, 391, 429, 464, 430, 390
131, 391, 465, 467, 393, 430, 466, 431, 392
132, 393, 467, 469, 395, 431, 468, 432, 394
133, 395, 469, 471, 397, 432, 470, 433, 396
134, 397, 471, 473, 399, 433, 472, 434, 398
135, 399, 473, 475, 401, 434, 474, 435, 400
136, 401, 475, 477, 403, 435, 476, 436, 402
137, 403, 477, 479, 405, 436, 478, 437, 404
138, 405, 479, 481, 407, 437, 480, 438, 406
139, 407, 481, 483, 409, 438, 482, 439, 408
140, 409, 483, 485, 411, 439, 484, 440, 410
141, 411, 485, 487, 413, 440, 486, 441, 412
142, 413, 487, 489, 415, 441, 488, 442, 414
143, 415, 489, 491, 417, 442, 490, 443, 416
144, 417, 491, 493, 419, 443, 492, 444, 418
145, 445, 519, 521, 447, 494, 520, 495, 446
146, 447, 521, 523, 449, 495, 522, 496, 448
147, 449, 523, 525, 451, 496, 524, 497, 450
148, 451, 525, 527, 453, 497, 526, 498, 452
149, 453, 527, 529, 455, 498, 528, 499, 454
150, 455, 529, 531, 457, 499, 530, 500, 456
151, 457, 531, 533, 459, 500, 532, 501, 458
152, 459, 533, 535, 461, 501, 534, 502, 460
153, 461, 535, 537, 463, 502, 536, 503, 462
154, 463, 537, 539, 465, 503, 538, 504, 464
155, 465, 539, 541, 467, 504, 540, 505, 466
156, 467, 541, 543, 469, 505, 542, 506, 468
157, 469, 543, 545, 471, 506, 544, 507, 470
158, 471, 545, 547, 473, 507, 546, 508, 472
159, 473, 547, 549, 475, 508, 548, 509, 474
160, 475, 549, 551, 477, 509, 550, 510, 476
161, 477, 551, 553, 479, 510, 552, 511, 478
162, 479, 553, 555, 481, 511, 554, 512, 480
163, 481, 555, 557, 483, 512, 556, 513, 482
164, 483, 557, 559, 485, 513, 558, 514, 484
165, 485, 559, 561, 487, 514, 560, 515, 486
166, 487, 561, 563, 489, 515, 562, 516, 488
167, 489, 563, 565, 491, 516, 564, 517, 490
168, 491, 565, 567, 493, 517, 566, 518, 492
169, 519, 593, 595, 521, 568, 594, 569, 520
170, 521, 595, 597, 523, 569, 596, 570, 522
171, 523, 597, 599, 525, 570, 598, 571, 524
172, 525, 599, 601, 527, 571, 600, 572, 526
173, 527, 601, 603, 529, 572, 602, 573, 528
174, 529, 603, 605, 531, 573, 604, 574, 530
175, 531, 605, 607, 533, 574, 606, 575, 532
176, 533, 607, 609, 535, 575, 608, 576, 534
177, 535, 609, 611, 537, 576, 610, 577, 536
178, 537, 611, 613, 539, 577, 612, 578, 538
179, 539, 613, 615, 541, 578, 614, 579, 540
180, 541, 615, 617, 543, 579, 616, 580, 542
181, 543, 617, 619, 545, 580, 618, 581, 544
182, 545, 619, 621, 547, 581, 620, 582, 546
183, 547, 621, 623, 549, 582, 622, 583, 548
184, 549, 623, 625, 551, 583, 624, 584, 550
185, 551, 625, 627, 553, 584, 626, 585, 552
186, 553, 627, 629, 555, 585, 628, 586, 554
187, 555, 629, 631, 557, 586, 630, 587, 556
188, 557, 631, 633, 559, 587, 632, 588, 558
189, 559, 633, 635, 561, 588, 634, 589, 560
190, 561, 635, 637, 563, 589, 636, 590, 562
191, 563, 637, 639, 565, 590, 638, 591, 564
192, 565, 639, 641, 567, 591, 640, 592, 566
*ELSET, ELSET=OUTER
169, 170, 171, 172, 173, 174, 175, 176, 177, 178, 179, 180
181, 182, 183, 184, 185, 186, 187, 188, 189, 190, 191, 192
*NSET, NSET=D
1
*NSET, NSET=YS
1, 50, 75, 124, 149, 198, 223, 272, 297, 346, 371, 420
445, 494, 519, 568, 593
*NSET, NSET=XS
49, 74, 123, 148, 197, 222, 271, 296, 345, 370, 419, 444
493, 518, 567, 592, 641
*MATERIAL, NAME=STEEL
*ELASTIC
210000, 0.3
*SOLID SECTION, ELSET=MEM, MATERIAL=STEEL
100
*BOUNDARY
YS, 2, 2
XS, 1, 1
*STEP
*STATIC
*DLOAD
OUTER, P2, -10
*NODE FILE
U
*EL FILE
S
*END STEP
