*HEADING
NAFEMS LE1 elliptic membrane, quadratic triangles CPS6
Target: syy(D) = 92.7 MPa
** mesh 8 x 24 quads x 2 CPS6, node D = 1
*NODE
1, 2000, 0, 0
2, 1998.9292, 32.719083, 0
3, 1995.7178, 65.403129, 0
4, 1990.3695, 98.01714, 0
5, 1982.8897, 130.52619, 0
6, 1973.2867, 162.89547, 0
7, 1961.5706, 195.09032, 0
8, 1947.754, 227.07626, 0
9, 1931.8517, 258.81905, 0
10, 1913.8807, 290.28468, 0
11, 1893.8603, 321.43947, 0
12, 1871.8119, 352.25005, 0
13, 1847.7591, 382.68343, 0
14, 1821.7276, 412.70703, 0
15, 1793.7455, 442.28869, 0
16, 1763.8425, 471.39674, 0
17, 1732.0508, 500, 0
18, 1698.4044, 528.06785, 0
19, 1662.9392, 555.57023, 0
20, 1625.6934, 582.4777, 0
21, 1586.7067, 608.76143, 0
22, 1546.0209, 634.39328, 0
23, 1503.6796, 659.34582, 0
24, 1459.7281, 683.5923, 0
25, 1414.2136, 707.10678, 0
26, 1367.1846, 729.86407, 0
27, 1318.6916, 751.83981, 0
28, 1268.7866, 773.01045, 0
29, 1217.5229, 793.35334, 0
30, 1164.9554, 812.84668, 0
31, 1111.1405, 831.46961, 0
32, 1056.1357, 849.20218, 0
33, 1000, 866.0254, 0
34, 942.79347, 881.92126, 0
35, 884.57738, 896.87274, 0
36, 825.41406, 910.86382, 0
37, 765.36686, 923.87953, 0
38, 704.5001, 935.90593, 0
39, 642.87893, 946.93013, 0
40, 580.56935, 956.94034, 0
41, 517.63809, 965.92583, 0
42, 454.15253, 973.87698, 0
43, 390.18064, 980.78528, 0
44, 325.79095, 986.64333, 0
45, 261.05238, 991.44486, 0
46, 196.03428, 995.18473, 0
47, 130.80626, 997.85892, 0
48, 65.438166, 999.46459, 0
49, 1.2246468e-13, 1000, 0
50, 2078.125, 0, 0
51, 2077.0123, 36.297733, 0
52, 2073.6756, 72.556596, 0
53, 2068.1183, 108.73777, 0
54, 2060.3464, 144.80249, 0
55, 2050.3682, 180.71217, 0
56, 2038.1944, 216.42833, 0
57, 2023.8381, 251.91273, 0
58, 2007.3146, 287.12738, 0
59, 1988.6416, 322.03456, 0
60, 1967.8392, 356.59691, 0
61, 1944.9295, 390.7774, 0
62, 1919.9372, 424.53943, 0
63, 1892.8889, 457.84686, 0
64, 1863.8137, 490.66402, 0
65, 1832.7426, 522.95575, 0
66, 1799.709, 554.6875, 0
67, 1764.7483, 585.82527, 0
68, 1727.8978, 616.33573, 0
69, 1689.197, 646.18619, 0
70, 1648.6874, 675.34471, 0
71, 1606.4123, 703.78005, 0
72, 1562.4171, 731.46176, 0
73, 1516.7488, 758.36021, 0
74, 1469.4563, 784.44659, 0
75, 1420.5903, 809.69296, 0
76, 1370.203, 834.07229, 0
77, 1318.3485, 857.55847, 0
78, 1265.0823, 880.12636, 0
79, 1210.4615, 901.75179, 0
80, 1154.5444, 922.4116, 0
81, 1097.391, 942.08367, 0
82, 1039.0625, 960.74693, 0
83, 979.62134, 978.3814, 0
84, 919.13118, 994.9682, 0
85, 857.6568, 1010.4896, 0
86, 795.26401, 1024.9289, 0
87, 732.01963, 1038.2706, 0
88, 667.99139, 1050.5006, 0
89, 603.24784, 1061.6057, 0
90, 537.85833, 1071.574, 0
91, 471.89286, 1080.3948, 0
92, 405.42208, 1088.0587, 0
93, 338.51716, 1094.5574, 0
94, 271.24974, 1099.8841, 0
95, 203.69187, 1104.0331, 0
96, 135.91588, 1106.9997, 0
97, 67.994344, 1108.781, 0
98, 1.2724846e-13, 1109.375, 0
99, 2156.25, 0, 0
100, 2155.0955, 39.876382, 0
101, 2151.6333, 79.710064, 0
102, 2145.8671, 119.45839, 0
103, 2137.803, 159.0788, 0
104, 2127.4497, 198.52886, 0
105, 2114.8183, 237.76633, 0
106, 2099.9222, 276.7492, 0
107, 2082.7776, 315.43571, 0
108, 2063.4026, 353.78445, 0
109, 2041.8181, 391.75435, 0
110, 2018.0472, 429.30475, 0
111, 1992.1152, 466.39543, 0
112, 1964.0501, 502.98669, 0
113, 1933.8818, 539.03934, 0
114, 1901.6427, 574.51477, 0
115, 1867.3673, 609.375, 0
116, 1831.0922, 643.58269, 0
117, 1792.8564, 677.10122, 0
118, 1752.7007, 709.89469, 0
119, 1710.6681, 741.92799, 0
120, 1666.8038, 773.16682, 0
121, 1621.1546, 803.57771, 0
122, 1573.7694, 833.12812, 0
123, 1524.699, 861.78639, 0
124, 1473.9959, 889.52184, 0
125, 1421.7144, 916.30477, 0
126, 1367.9105, 942.10649, 0
127, 1312.6418, 966.89938, 0
128, 1255.9675, 990.6569, 0
129, 1197.9483, 1013.3536, 0
130, 1138.6463, 1034.9652, 0
131, 1078.125, 1055.4685, 0
132, 1016.4492, 1074.8415, 0
133, 953.68499, 1093.0637, 0
134, 889.89953, 1110.1153, 0
135, 825.16115, 1125.9782, 0
136, 759.53917, 1140.6353, 0
137, 693.10385, 1154.0711, 0
138, 625.92634, 1166.271, 0
139, 558.07857, 1177.2221, 0
140, 489.63319, 1186.9126, 0
141, 420.66351, 1195.3321, 0
142, 351.24336, 1202.4716, 0
143, 281.4471, 1208.3234, 0
144, 211.34946, 1212.8814, 0
145, 141.0255, 1216.1406, 0
146, 70.550522, 1218.0975, 0
147, 1.3203223e-13, 1218.75, 0
148, 2234.375, 0, 0
149, 2233.1787, 43.455032, 0
150, 2229.591, 86.863531, 0
151, 2223.6159, 130.17901, 0
152, 2215.2596, 173.3551, 0
153, 2204.5312, 216.34555, 0
154, 2191.4421, 259.10433, 0
155, 2176.0064, 301.58566, 0
156, 2158.2405, 343.74404, 0
157, 2138.1636, 385.53434, 0
158, 2115.797, 426.91179, 0
159, 2091.1648, 467.83209, 0
160, 2064.2933, 508.25143, 0
161, 2035.2114, 548.12652, 0
162, 2003.95, 587.41467, 0
163, 1970.5428, 626.07379, 0
164, 1935.0255, 664.0625, 0
165, 1897.4361, 701.34011, 0
166, 1857.8149, 737.86672, 0
167, 1816.2043, 773.60319, 0
168, 1772.6489, 808.51127, 0
169, 1727.1952, 842.55358, 0
170, 1679.8921, 875.69366, 0
171, 1630.79, 907.89603, 0
172, 1579.9417, 939.12619, 0
173, 1527.4015, 969.35072, 0
174, 1473.2258, 998.53724, 0
175, 1417.4725, 1026.6545, 0
176, 1360.2013, 1053.6724, 0
177, 1301.4736, 1079.562, 0
178, 1241.3522, 1104.2956, 0
179, 1179.9016, 1127.8466, 0
180, 1117.1875, 1150.19, 0
181, 1053.2771, 1171.3017, 0
182, 988.23879, 1191.1591, 0
183, 922.14227, 1209.741, 0
184, 855.05829, 1227.0275, 0
185, 787.0587, 1243.0001, 0
186, 718.21631, 1257.6416, 0
187, 648.60483, 1270.9364, 0
188, 578.2988, 1282.8702, 0
189, 507.37353, 1293.4304, 0
190, 435.90494, 1302.6055, 0
191, 363.96957, 1310.3857, 0
192, 291.64446, 1316.7627, 0
193, 219.00705, 1321.7297, 0
194, 146.13512, 1325.2814, 0
195, 73.106701, 1327.4139, 0
196, 1.3681601e-13, 1328.125, 0
197, 2312.5, 0, 0
198, 2311.2619, 47.033682, 0
199, 2307.5488, 94.016998, 0
200, 2301.3647, 140.89964, 0
201, 2292.7162, 187.6314, 0
202, 2281.6127, 234.16224, 0
203, 2268.066, 280.44234, 0
204, 2252.0905, 326.42213, 0
205, 2233.7035, 372.05238, 0
206, 2212.9245, 417.28422, 0
207, 2189.7759, 462.06923, 0
208, 2164.2825, 506.35944, 0
209, 2136.4714, 550.10743, 0
210, 2106.3726, 593.26636, 0
211, 2074.0182, 635.78999, 0
212, 2039.4429, 677.63281, 0
213, 2002.6837, 718.75, 0
214, 1963.78, 759.09754, 0
215, 1922.7735, 798.63221, 0
216, 1879.708, 837.31169, 0
217, 1834.6296, 875.09455, 0
218, 1787.5867, 911.94035, 0
219, 1738.6296, 947.80961, 0
220, 1687.8107, 982.66393, 0
221, 1635.1844, 1016.466, 0
222, 1580.8072, 1049.1796, 0
223, 1524.7372, 1080.7697, 0
224, 1467.0345, 1111.2025, 0
225, 1407.7608, 1140.4454, 0
226, 1346.9797, 1168.4671, 0
227, 1284.7562, 1195.2376, 0
228, 1221.1569, 1220.7281, 0
229, 1156.25, 1244.9115, 0
230, 1090.105, 1267.7618, 0
231, 1022.7926, 1289.2546, 0
232, 954.38501, 1309.3667, 0
233, 884.95544, 1328.0768, 0
234, 814.57824, 1345.3648, 0
235, 743.32876, 1361.2121, 0
236, 671.28332, 1375.6017, 0
237, 598.51904, 1388.5184, 0
238, 525.11386, 1399.9482, 0
239, 451.14637, 1409.8788, 0
240, 376.69578, 1418.2998, 0
241, 301.84182, 1425.202, 0
242, 226.66464, 1430.578, 0
243, 151.24474, 1434.4222, 0
244, 75.662879, 1436.7303, 0
245, 1.4159979e-13, 1437.5, 0
246, 2390.625, 0, 0
247, 2389.345, 50.612331, 0
248, 2385.5065, 101.17047, 0
249, 2379.1135, 151.62026, 0
250, 2370.1729, 201.9077, 0
251, 2358.6942, 251.97894, 0
252, 2344.6898, 301.78034, 0
253, 2328.1747, 351.25859, 0
254, 2309.1664, 400.36071, 0
255, 2287.6855, 449.03411, 0
256, 2263.7548, 497.22667, 0
257, 2237.4001, 544.88679, 0
258, 2208.6495, 591.96343, 0
259, 2177.5338, 638.40619, 0
260, 2144.0864, 684.16532, 0
261, 2108.343, 729.19183, 0
262, 2070.342, 773.4375, 0
263, 2030.124, 816.85496, 0
264, 1987.732, 859.3977, 0
265, 1943.2116, 901.02019, 0
266, 1896.6103, 941.67784, 0
267, 1847.9781, 981.32711, 0
268, 1797.367, 1019.9256, 0
269, 1744.8313, 1057.4318, 0
270, 1690.4271, 1093.8058, 0
271, 1634.2128, 1129.0085, 0
272, 1576.2486, 1163.0022, 0
273, 1516.5964, 1195.7505, 0
274, 1455.3203, 1227.2184, 0
275, 1392.4857, 1257.3722, 0
276, 1328.1601, 1286.1796, 0
277, 1262.4122, 1313.6096, 0
278, 1195.3125, 1339.633, 0
279, 1126.9328, 1364.222, 0
280, 1057.3464, 1387.35, 0
281, 986.62774, 1408.9925, 0
282, 914.85258, 1429.1262, 0
283, 842.09777, 1447.7295, 0
284, 768.44122, 1464.7825, 0
285, 693.96181, 1480.2671, 0
286, 618.73928, 1494.1665, 0
287, 542.85419, 1506.466, 0
288, 466.3878, 1517.1522, 0
289, 389.42199, 1526.2139, 0
290, 312.03918, 1533.6413, 0
291, 234.32223, 1539.4264, 0
292, 156.35436, 1543.563, 0
293, 78.219057, 1546.0468, 0
294, 1.4638356e-13, 1546.875, 0
295, 2468.75, 0, 0
296, 2467.4282, 54.190981, 0
297, 2463.4642, 108.32393, 0
298, 2456.8623, 162.34089, 0
299, 2447.6295, 216.18401, 0
300, 2435.7757, 269.79563, 0
301, 2421.3137, 323.11835, 0
302, 2404.2588, 376.09506, 0
303, 2384.6294, 428.66904, 0
304, 2362.4465, 480.784, 0
305, 2337.7338, 532.38411, 0
306, 2310.5178, 583.41414, 0
307, 2280.8276, 633.81943, 0
308, 2248.6951, 683.54602, 0
309, 2214.1546, 732.54064, 0
310, 2177.2431, 780.75085, 0
311, 2138.0002, 828.125, 0
312, 2096.4679, 874.61238, 0
313, 2052.6906, 920.1632, 0
314, 2006.7153, 964.72869, 0
315, 1958.5911, 1008.2611, 0
316, 1908.3696, 1050.7139, 0
317, 1856.1045, 1092.0415, 0
318, 1801.8519, 1132.1998, 0
319, 1745.6699, 1171.1456, 0
320, 1687.6185, 1208.8374, 0
321, 1627.76, 1245.2347, 0
322, 1566.1584, 1280.2986, 0
323, 1502.8798, 1313.9915, 0
324, 1437.9918, 1346.2773, 0
325, 1371.564, 1377.1215, 0
326, 1303.6675, 1406.4911, 0
327, 1234.375, 1434.3546, 0
328, 1163.7607, 1460.6821, 0
329, 1091.9002, 1485.4455, 0
330, 1018.8705, 1508.6182, 0
331, 944.74972, 1530.1755, 0
332, 869.61731, 1550.0942, 0
333, 793.55368, 1568.353, 0
334, 716.6403, 1584.9324, 0
335, 638.95952, 1599.8146, 0
336, 560.59452, 1612.9837, 0
337, 481.62923, 1624.4256, 0
338, 402.1482, 1634.128, 0
339, 322.23654, 1642.0806, 0
340, 241.97982, 1648.2747, 0
341, 161.46398, 1652.7038, 0
342, 80.775236, 1655.3632, 0
343, 1.5116734e-13, 1656.25, 0
344, 2546.875, 0, 0
345, 2545.5114, 57.769631, 0
346, 2541.4219, 115.4774, 0
347, 2534.6111, 173.06151, 0
348, 2525.0861, 230.46031, 0
349, 2512.8572, 287.61232, 0
350, 2497.9375, 344.45635, 0
351, 2480.3429, 400.93153, 0
352, 2460.0923, 456.97738, 0
353, 2437.2074, 512.53388, 0
354, 2411.7127, 567.54156, 0
355, 2383.6354, 621.94149, 0
356, 2353.0057, 675.67544, 0
357, 2319.8563, 728.68585, 0
358, 2284.2228, 780.91597, 0
359, 2246.1432, 832.30986, 0
360, 2205.6585, 882.8125, 0
361, 2162.8118, 932.3698, 0
362, 2117.6492, 980.92869, 0
363, 2070.2189, 1028.4372, 0
364, 2020.5718, 1074.8444, 0
365, 1968.761, 1120.1006, 0
366, 1914.842, 1164.1575, 0
367, 1858.8726, 1206.9677, 0
368, 1800.9126, 1248.4854, 0
369, 1741.0241, 1288.6663, 0
370, 1679.2714, 1327.4672, 0
371, 1615.7204, 1364.8466, 0
372, 1550.4393, 1400.7645, 0
373, 1483.4979, 1435.1824, 0
374, 1414.9679, 1468.0635, 0
375, 1344.9228, 1499.3726, 0
376, 1273.4375, 1529.0761, 0
377, 1200.5886, 1557.1422, 0
378, 1126.454, 1583.5409, 0
379, 1051.1132, 1608.2439, 0
380, 974.64687, 1631.2248, 0
381, 897.13684, 1652.4589, 0
382, 818.66614, 1671.9235, 0
383, 739.31879, 1689.5978, 0
384, 659.17976, 1705.4628, 0
385, 578.33486, 1719.5015, 0
386, 496.87066, 1731.699, 0
387, 414.87441, 1742.0421, 0
388, 332.4339, 1750.5198, 0
389, 249.6374, 1757.123, 0
390, 166.57359, 1761.8447, 0
391, 83.331414, 1764.6797, 0
392, 1.5595112e-13, 1765.625, 0
393, 2625, 0, 0
394, 2623.5945, 61.34828, 0
395, 2619.3797, 122.63087, 0
396, 2612.3599, 183.78214, 0
397, 2602.5428, 244.73661, 0
398, 2589.9387, 305.42901, 0
399, 2574.5614, 365.79435, 0
400, 2556.4271, 425.76799, 0
401, 2535.5553, 485.28571, 0
402, 2511.9684, 544.28377, 0
403, 2485.6916, 602.699, 0
404, 2456.7531, 660.46884, 0
405, 2425.1838, 717.53144, 0
406, 2391.0175, 773.82568, 0
407, 2354.2909, 829.29129, 0
408, 2315.0433, 883.86888, 0
409, 2273.3167, 937.5, 0
410, 2229.1557, 990.12722, 0
411, 2182.6077, 1041.6942, 0
412, 2133.7225, 1092.1457, 0
413, 2082.5525, 1141.4277, 0
414, 2029.1524, 1189.4874, 0
415, 1973.5795, 1236.2734, 0
416, 1915.8932, 1281.7356, 0
417, 1856.1553, 1325.8252, 0
418, 1794.4298, 1368.4951, 0
419, 1730.7828, 1409.6996, 0
420, 1665.2824, 1449.3946, 0
421, 1597.9988, 1487.5375, 0
422, 1529.004, 1524.0875, 0
423, 1458.3719, 1559.0055, 0
424, 1386.1781, 1592.2541, 0
425, 1312.5, 1623.7976, 0
426, 1237.4164, 1653.6024, 0
427, 1161.0078, 1681.6364, 0
428, 1083.356, 1707.8697, 0
429, 1004.544, 1732.2741, 0
430, 924.65638, 1754.8236, 0
431, 843.7786, 1775.494, 0
432, 761.99728, 1794.2631, 0
433, 679.39999, 1811.1109, 0
434, 596.07519, 1826.0193, 0
435, 512.1121, 1838.9724, 0
436, 427.60062, 1849.9562, 0
437, 342.63125, 1858.9591, 0
438, 257.29499, 1865.9714, 0
439, 171.68321, 1870.9855, 0
440, 85.887592, 1873.9961, 0
441, 1.6073489e-13, 1875, 0
442, 2703.125, 0, 0
443, 2701.6777, 64.92693, 0
444, 2697.3374, 129.78433, 0
445, 2690.1087, 194.50276, 0
446, 2679.9994, 259.01291, 0
447, 2667.0203, 323.24571, 0
448, 2651.1852, 387.13236, 0
449, 2632.5112, 450.60446, 0
450, 2611.0182, 513.59404, 0
451, 2586.7293, 576.03366, 0
452, 2559.6705, 637.85644, 0
453, 2529.8707, 698.99619, 0
454, 2497.3619, 759.38744, 0
455, 2462.1788, 818.96551, 0
456, 2424.3591, 877.66662, 0
457, 2383.9434, 935.4279, 0
458, 2340.9749, 992.1875, 0
459, 2295.4996, 1047.8846, 0
460, 2247.5663, 1102.4597, 0
461, 2197.2262, 1155.8542, 0
462, 2144.5332, 1208.011, 0
463, 2089.5439, 1258.8742, 0
464, 2032.317, 1308.3894, 0
465, 1972.9138, 1356.5035, 0
466, 1911.398, 1403.165, 0
467, 1847.8354, 1448.324, 0
468, 1782.2942, 1491.9321, 0
469, 1714.8443, 1533.9426, 0
470, 1645.5582, 1574.3105, 0
471, 1574.51, 1612.9926, 0
472, 1501.7758, 1649.9475, 0
473, 1427.4334, 1685.1356, 0
474, 1351.5625, 1718.5192, 0
475, 1274.2443, 1750.0625, 0
476, 1195.5616, 1779.7318, 0
477, 1115.5987, 1807.4954, 0
478, 1034.4412, 1833.3234, 0
479, 952.17591, 1857.1883, 0
480, 868.89105, 1879.0645, 0
481, 784.67577, 1898.9285, 0
482, 699.62023, 1916.7591, 0
483, 613.81552, 1932.5371, 0
484, 527.35353, 1946.2458, 0
485, 440.32683, 1957.8704, 0
486, 352.82861, 1967.3984, 0
487, 264.95258, 1974.8197, 0
488, 176.79283, 1980.1263, 0
489, 88.443771, 1983.3125, 0
490, 1.6551867e-13, 1984.375, 0
491, 2781.25, 0, 0
492, 2779.7609, 68.50558, 0
493, 2775.2951, 136.9378, 0
494, 2767.8575, 205.22339, 0
495, 2757.456, 273.28921, 0
496, 2744.1018, 341.0624, 0
497, 2727.8091, 408.47036, 0
498, 2708.5953, 475.44093, 0
499, 2686.4812, 541.90238, 0
500, 2661.4903, 607.78354, 0
501, 2633.6494, 673.01388, 0
502, 2602.9884, 737.52354, 0
503, 2569.5399, 801.24344, 0
504, 2533.34, 864.10534, 0
505, 2494.4273, 926.04195, 0
506, 2452.8435, 986.98692, 0
507, 2408.6332, 1046.875, 0
508, 2361.8436, 1105.6421, 0
509, 2312.5249, 1163.2252, 0
510, 2260.7298, 1219.5627, 0
511, 2206.514, 1274.5942, 0
512, 2149.9353, 1328.2609, 0
513, 2091.0545, 1380.5053, 0
514, 2029.9345, 1431.2714, 0
515, 1966.6407, 1480.5048, 0
516, 1901.2411, 1528.1529, 0
517, 1833.8055, 1574.1646, 0
518, 1764.4063, 1618.4906, 0
519, 1693.1177, 1661.0836, 0
520, 1620.0161, 1701.8977, 0
521, 1545.1797, 1740.8895, 0
522, 1468.6887, 1778.0171, 0
523, 1390.625, 1813.2407, 0
524, 1311.0722, 1846.5226, 0
525, 1230.1154, 1877.8273, 0
526, 1147.8414, 1907.1211, 0
527, 1064.3383, 1934.3728, 0
528, 979.69545, 1959.553, 0
529, 894.00351, 1982.635, 0
530, 807.35426, 2003.5938, 0
531, 719.84047, 2022.4072, 0
532, 631.55586, 2039.0549, 0
533, 542.59496, 2053.5192, 0
534, 453.05304, 2065.7845, 0
535, 363.02597, 2075.8377, 0
536, 272.61017, 2083.668, 0
537, 181.90245, 2089.2671, 0
538, 90.999949, 2092.629, 0
539, 1.7030245e-13, 2093.75, 0
540, 2859.375, 0, 0
541, 2857.8441, 72.084229, 0
542, 2853.2529, 144.09127, 0
543, 2845.6063, 215.94401, 0
544, 2834.9127, 287.56552, 0
545, 2821.1833, 358.87909, 0
546, 2804.4329, 429.80837, 0
547, 2784.6795, 500.27739, 0
548, 2761.9442, 570.21071, 0
549, 2736.2513, 639.53343, 0
550, 2707.6283, 708.17132, 0
551, 2676.106, 776.05089, 0
552, 2641.718, 843.09944, 0
553, 2604.5012, 909.24518, 0
554, 2564.4955, 974.41727, 0
555, 2521.7436, 1038.5459, 0
556, 2476.2914, 1101.5625, 0
557, 2428.1875, 1163.3995, 0
558, 2377.4834, 1223.9907, 0
559, 2324.2335, 1283.2712, 0
560, 2268.4947, 1341.1775, 0
561, 2210.3268, 1397.6477, 0
562, 2149.7919, 1452.6212, 0
563, 2086.9551, 1506.0393, 0
564, 2021.8835, 1557.8446, 0
565, 1954.6467, 1607.9818, 0
566, 1885.3169, 1656.3971, 0
567, 1813.9683, 1703.0387, 0
568, 1740.6772, 1747.8566, 0
569, 1665.5222, 1790.8029, 0
570, 1588.5836, 1831.8315, 0
571, 1509.944, 1870.8986, 0
572, 1429.6875, 1907.9622, 0
573, 1347.9, 1942.9828, 0
574, 1264.6692, 1975.9228, 0
575, 1180.0842, 2006.7469, 0
576, 1094.2354, 2035.4221, 0
577, 1007.215, 2061.9177, 0
578, 919.11597, 2086.2054, 0
579, 830.03275, 2108.2592, 0
580, 740.06071, 2128.0553, 0
581, 649.29619, 2145.5727, 0
582, 557.83639, 2160.7926, 0
583, 465.77924, 2173.6986, 0
584, 373.22333, 2184.277, 0
585, 280.26776, 2192.5164, 0
586, 187.01207, 2198.4079, 0
587, 93.556127, 2201.9454, 0
588, 1.7508622e-13, 2203.125, 0
589, 2937.5, 0, 0
590, 2935.9272, 75.662879, 0
591, 2931.2106, 151.24474, 0
592, 2923.3551, 226.66464, 0
593, 2912.3693, 301.84182, 0
594, 2898.2648, 376.69578, 0
595, 2881.0568, 451.14637, 0
596, 2860.7636, 525.11386, 0
597, 2837.4071, 598.51904, 0
598, 2811.0122, 671.28332, 0
599, 2781.6073, 743.32876, 0
600, 2749.2237, 814.57824, 0
601, 2713.8961, 884.95544, 0
602, 2675.6625, 954.38501, 0
603, 2634.5637, 1022.7926, 0
604, 2590.6437, 1090.105, 0
605, 2543.9496, 1156.25, 0
606, 2494.5314, 1221.1569, 0
607, 2442.442, 1284.7562, 0
608, 2387.7371, 1346.9797, 0
609, 2330.4754, 1407.7608, 0
610, 2270.7182, 1467.0345, 0
611, 2208.5294, 1524.7372, 0
612, 2143.9757, 1580.8072, 0
613, 2077.1262, 1635.1844, 0
614, 2008.0524, 1687.8107, 0
615, 1936.8283, 1738.6296, 0
616, 1863.5303, 1787.5867, 0
617, 1788.2367, 1834.6296, 0
618, 1711.0282, 1879.708, 0
619, 1631.9876, 1922.7735, 0
620, 1551.1993, 1963.78, 0
621, 1468.75, 2002.6837, 0
622, 1384.7279, 2039.4429, 0
623, 1299.223, 2074.0182, 0
624, 1212.3269, 2106.3726, 0
625, 1124.1326, 2136.4714, 0
626, 1034.7345, 2164.2825, 0
627, 944.22843, 2189.7759, 0
628, 852.71124, 2212.9245, 0
629, 760.28094, 2233.7035, 0
630, 667.03652, 2252.0905, 0
631, 573.07782, 2268.066, 0
632, 478.50545, 2281.6127, 0
633, 383.42069, 2292.7162, 0
634, 287.92535, 2301.3647, 0
635, 192.12169, 2307.5488, 0
636, 96.112306, 2311.2619, 0
637, 1.7987e-13, 2312.5, 0
638, 3015.625, 0, 0
639, 3014.0104, 79.241529, 0
640, 3009.1683, 158.3982, 0
641, 3001.1039, 237.38526, 0
642, 2989.8259, 316.11812, 0
643, 2975.3463, 394.51247, 0
644, 2957.6806, 472.48437, 0
645, 2936.8478, 549.95032, 0
646, 2912.8701, 626.82737, 0
647, 2885.7732, 703.0332, 0
648, 2855.5862, 778.48621, 0
649, 2822.3413, 853.10558, 0
650, 2786.0742, 926.81144, 0
651, 2746.8237, 999.52484, 0
652, 2704.6319, 1071.1679, 0
653, 2659.5438, 1141.664, 0
654, 2611.6079, 1210.9375, 0
655, 2560.8753, 1278.9143, 0
656, 2507.4005, 1345.5217, 0
657, 2451.2408, 1410.6882, 0
658, 2392.4562, 1474.3441, 0
659, 2331.1096, 1536.4212, 0
660, 2267.2669, 1596.8531, 0
661, 2200.9963, 1655.5751, 0
662, 2132.3689, 1712.5242, 0
663, 2061.458, 1767.6396, 0
664, 1988.3397, 1820.862, 0
665, 1913.0922, 1872.1347, 0
666, 1835.7962, 1921.4026, 0
667, 1756.5343, 1968.6131, 0
668, 1675.3915, 2013.7155, 0
669, 1592.4546, 2056.6615, 0
670, 1507.8125, 2097.4053, 0
671, 1421.5558, 2135.9031, 0
672, 1333.7768, 2172.1137, 0
673, 1244.5696, 2205.9983, 0
674, 1154.0297, 2237.5207, 0
675, 1062.2541, 2266.6472, 0
676, 969.34089, 2293.3464, 0
677, 875.38973, 2317.5899, 0
678, 780.50118, 2339.3516, 0
679, 684.77686, 2358.6083, 0
680, 588.31925, 2375.3394, 0
681, 491.23166, 2389.5268, 0
682, 393.61805, 2401.1555, 0
683, 295.58294, 2410.213, 0
684, 197.23131, 2416.6896, 0
685, 98.668484, 2420.5783, 0
686, 1.8465378e-13, 2421.875, 0
687, 3093.75, 0, 0
688, 3092.0936, 82.820178, 0
689, 3087.126, 165.55167, 0
690, 3078.8527, 248.10589, 0
691, 3067.2825, 330.39442, 0
692, 3052.4278, 412.32917, 0
693, 3034.3045, 493.82238, 0
694, 3012.9319, 574.78679, 0
695, 2988.333, 655.13571, 0
696, 2960.5342, 734.78309, 0
697, 2929.5651, 813.64365, 0
698, 2895.459, 891.63293, 0
699, 2858.2523, 968.66744, 0
700, 2817.985, 1044.6647, 0
701, 2774.7, 1119.5432, 0
702, 2728.4439, 1193.223, 0
703, 2679.2661, 1265.625, 0
704, 2627.2192, 1336.6717, 0
705, 2572.3591, 1406.2872, 0
706, 2514.7444, 1474.3967, 0
707, 2454.4369, 1540.9274, 0
708, 2391.5011, 1605.808, 0
709, 2326.0044, 1668.9691, 0
710, 2258.017, 1730.343, 0
711, 2187.6116, 1789.864, 0
712, 2114.8637, 1847.4684, 0
713, 2039.8511, 1903.0945, 0
714, 1962.6542, 1956.6827, 0
715, 1883.3557, 2008.1756, 0
716, 1802.0404, 2057.5182, 0
717, 1718.7954, 2104.6575, 0
718, 1633.7099, 2149.543, 0
719, 1546.875, 2192.1268, 0
720, 1458.3837, 2232.3632, 0
721, 1368.3306, 2270.2091, 0
722, 1276.8124, 2305.6241, 0
723, 1183.9269, 2338.5701, 0
724, 1089.7736, 2369.0119, 0
725, 994.45335, 2396.9169, 0
726, 898.06822, 2422.2552, 0
727, 800.72142, 2444.9997, 0
728, 702.51719, 2465.1261, 0
729, 603.56068, 2482.6127, 0
730, 503.95787, 2497.4409, 0
731, 403.81541, 2509.5948, 0
732, 303.24053, 2519.0613, 0
733, 202.34093, 2525.8304, 0
734, 101.22466, 2529.8947, 0
735, 1.8943755e-13, 2531.25, 0
736, 3171.875, 0, 0
737, 3170.1767, 86.398828, 0
738, 3165.0838, 172.70514, 0
739, 3156.6016, 258.82651, 0
740, 3144.7392, 344.67073, 0
741, 3129.5093, 430.14586, 0
742, 3110.9283, 515.16038, 0
743, 3089.016, 599.62326, 0
744, 3063.796, 683.44404, 0
745, 3035.2951, 766.53298, 0
746, 3003.544, 848.80109, 0
747, 2968.5766, 930.16028, 0
748, 2930.4304, 1010.5234, 0
749, 2889.1462, 1089.8045, 0
750, 2844.7682, 1167.9186, 0
751, 2797.344, 1244.782, 0
752, 2746.9243, 1320.3125, 0
753, 2693.5632, 1394.4292, 0
754, 2637.3177, 1467.0526, 0
755, 2578.2481, 1538.1052, 0
756, 2516.4176, 1607.5106, 0
757, 2451.8925, 1675.1948, 0
758, 2384.7419, 1741.085, 0
759, 2315.0376, 1805.1109, 0
760, 2242.8543, 1867.2038, 0
761, 2168.2693, 1927.2973, 0
762, 2091.3625, 1985.327, 0
763, 2012.2162, 2041.2307, 0
764, 1930.9152, 2094.9487, 0
765, 1847.5464, 2146.4233, 0
766, 1762.1993, 2195.5994, 0
767, 1674.9652, 2242.4245, 0
768, 1585.9375, 2286.8483, 0
769, 1495.2115, 2328.8233, 0
770, 1402.8844, 2368.3046, 0
771, 1309.0551, 2405.2498, 0
772, 1213.824, 2439.6194, 0
773, 1117.2931, 2471.3766, 0
774, 1019.5658, 2500.4874, 0
775, 920.74671, 2526.9206, 0
776, 820.94166, 2550.6479, 0
777, 720.25752, 2571.6439, 0
778, 618.80212, 2589.8861, 0
779, 516.68408, 2605.355, 0
780, 414.01277, 2618.0341, 0
781, 310.89812, 2627.9097, 0
782, 207.45055, 2634.9712, 0
783, 103.78084, 2639.2112, 0
784, 1.9422133e-13, 2640.625, 0
785, 3250, 0, 0
786, 3248.2599, 89.977478, 0
787, 3243.0415, 179.85861, 0
788, 3234.3504, 269.54714, 0
789, 3222.1958, 358.94703, 0
790, 3206.5908, 447.96255, 0
791, 3187.5522, 536.49839, 0
792, 3165.1002, 624.45972, 0
793, 3139.2589, 711.75237, 0
794, 3110.0561, 798.28286, 0
795, 3077.5229, 883.95853, 0
796, 3041.6943, 968.68763, 0
797, 3002.6085, 1052.3794, 0
798, 2960.3074, 1134.9443, 0
799, 2914.8364, 1216.2939, 0
800, 2866.2441, 1296.341, 0
801, 2814.5826, 1375, 0
802, 2759.9071, 1452.1866, 0
803, 2702.2762, 1527.8181, 0
804, 2641.7517, 1601.8137, 0
805, 2578.3984, 1674.0939, 0
806, 2512.284, 1744.5815, 0
807, 2443.4794, 1813.201, 0
808, 2372.0582, 1879.8788, 0
809, 2298.097, 1944.5436, 0
810, 2221.675, 2007.1262, 0
811, 2142.8739, 2067.5595, 0
812, 2061.7782, 2125.7787, 0
813, 1978.4746, 2181.7217, 0
814, 1893.0525, 2235.3284, 0
815, 1805.6033, 2286.5414, 0
816, 1716.2205, 2335.306, 0
817, 1625, 2381.5699, 0
818, 1532.0394, 2425.2835, 0
819, 1437.4382, 2466.4, 0
820, 1341.2978, 2504.8755, 0
821, 1243.7212, 2540.6687, 0
822, 1144.8127, 2573.7413, 0
823, 1044.6783, 2604.0579, 0
824, 943.4252, 2631.5859, 0
825, 841.1619, 2656.296, 0
826, 737.99785, 2678.1617, 0
827, 634.04355, 2697.1595, 0
828, 529.41029, 2713.2692, 0
829, 424.21012, 2726.4734, 0
830, 318.55571, 2736.758, 0
831, 212.56017, 2744.112, 0
832, 106.33702, 2748.5276, 0
833, 1.990051e-13, 2750, 0
*ELEMENT, TYPE=CPS6, ELSET=MEM
1, 1, 99, 101, 50, 100, 51
2, 1, 101, 3, 51, 52, 2
3, 3, 101, 103, 52, 102, 53
4, 3, 103, 5, 53, 54, 4
5, 5, 103, 105, 54, 104, 55
6, 5, 105, 7, 55, 56, 6
7, 7, 105, 107, 56, 106, 57
8, 7, 107, 9, 57, 58, 8
9, 9, 107, 109, 58, 108, 59
10, 9, 109, 11, 59, 60, 10
11, 11, 109, 111, 60, 110, 61
12, 11, 111, 13, 61, 62, 12
13, 13, 111, 113, 62, 112, 63
14, 13, 113, 15, 63, 64, 14
15, 15, 113, 115, 64, 114, 65
16, 15, 115, 17, 65, 66, 16
17, 17, 115, 117, 66, 116, 67
18, 17, 117, 19, 67, 68, 18
19, 19, 117, 119, 68, 118, 69
20, 19, 119, 21, 69, 70, 20
21, 21, 119, 121, 70, 120, 71
22, 21, 121, 23, 71, 72, 22
23, 23, 121, 123, 72, 122, 73
24, 23, 123, 25, 73, 74, 24
25, 25, 123, 125, 74, 124, 75
26, 25, 125, 27, 75, 76, 26
27, 27, 125, 127, 76, 126, 77
28, 27, 127, 29, 77, 78, 28
29, 29, 127, 129, 78, 128, 79
30, 29, 129, 31, 79, 80, 30
31, 31, 129, 131, 80, 130, 81
32, 31, 131, 33, 81, 82, 32
33, 33, 131, 133, 82, 132, 83
34, 33, 133, 35, 83, 84, 34
35, 35, 133, 135, 84, 134, 85
36, 35, 135, 37, 85, 86, 36
37, 37, 135, 137, 86, 136, 87
38, 37, 137, 39, 87, 88, 38
39, 39, 137, 139, 88, 138, 89
40, 39, 139, 41, 89, 90, 40
41, 41, 139, 141, 90, 140, 91
42, 41, 141, 43, 91, 92, 42
43, 43, 141, 143, 92, 142, 93
44, 43, 143, 45, 93, 94, 44
45, 45, 143, 145, 94, 144, 95
46, 45, 145, 47, 95, 96, 46
47, 47, 145, 147, 96, 146, 97
48, 47, 147, 49, 97, 98, 48
49, 99, 197, 199, 148, 198, 149
50, 99, 199, 101, 149, 150, 100
51, 101, 199, 201, 150, 200, 151
52, 101, 201, 103, 151, 152, 102
53, 103, 201, 203, 152, 202, 153
54, 103, 203, 105, 153, 154, 104
55, 105, 203, 205, 154, 204, 155
56, 105, 205, 107, 155, 156, 106
57, 107, 205, 207, 156, 206, 157
58, 107, 207, 109, 157, 158, 108
59, 109, 207, 209, 158, 208, 159
60, 109, 209, 111, 159, 160, 110
61, 111, 209, 211, 160, 210, 161
62, 111, 211, 113, 161, 162, 112
63, 113, 211, 213, 162, 212, 163
64, 113, 213, 115, 163, 164, 114
65, 115, 213, 215, 164, 214, 165
66, 115, 215, 117, 165, 166, 116
67, 117, 215, 217, 166, 216, 167
68, 117, 217, 119, 167, 168, 118
69, 119, 217, 219, 168, 218, 169
70, 119, 219, 121, 169, 170, 120
71, 121, 219, 221, 170, 220, 171
72, 121, 221, 123, 171, 172, 122
73, 123, 221, 223, 172, 222, 173
74, 123, 223, 125, 173, 174, 124
75, 125, 223, 225, 174, 224, 175
76, 125, 225, 127, 175, 176, 126
77, 127, 225, 227, 176, 226, 177
78, 127, 227, 129, 177, 178, 128
79, 129, 227, 229, 178, 228, 179
80, 129, 229, 131, 179, 180, 130
81, 131, 229, 231, 180, 230, 181
82, 131, 231, 133, 181, 182, 132
83, 133, 231, 233, 182, 232, 183
84, 133, 233, 135, 183, 184, 134
85, 135, 233, 235, 184, 234, 185
86, 135, 235, 137, 185, 186, 136
87, 137, 235, 237, 186, 236, 187
88, 137, 237, 139, 187, 188, 138
89, 139, 237, 239, 188, 238, 189
90, 139, 239, 141, 189, 190, 140
91, 141, 239, 241, 190, 240, 191
92, 141, 241, 143, 191, 192, 142
93, 143, 241, 243, 192, 242, 193
94, 143, 243, 145, 193, 194, 144
95, 145, 243, 245, 194, 244, 195
96, 145, 245, 147, 195, 196, 146
97, 197, 295, 297, 246, 296, 247
98, 197, 297, 199, 247, 248, 198
99, 199, 297, 299, 248, 298, 249
100, 199, 299, 201, 249, 250, 200
101, 201, 299, 301, 250, 300, 251
102, 201, 301, 203, 251, 252, 202
103, 203, 301, 303, 252, 302, 253
104, 203, 303, 205, 253, 254, 204
105, 205, 303, 305, 254, 304, 255
106, 205, 305, 207, 255, 256, 206
107, 207, 305, 307, 256, 306, 257
108, 207, 307, 209, 257, 258, 208
109, 209, 307, 309, 258, 308, 259
110, 209, 309, 211, 259, 260, 210
111, 211, 309, 311, 260, 310, 261
112, 211, 311, 213, 261, 262, 212
113, 213, 311, 313, 262, 312, 263
114, 213, 313, 215, 263, 264, 214
115, 215, 313, 315, 264, 314, 265
116, 215, 315, 217, 265, 266, 216
117, 217, 315, 317, 266, 316, 267
118, 217, 317, 219, 267, 268, 218
119, 219, 317, 319, 268, 318, 269
120, 219, 319, 221, 269, 270, 220
121, 221, 319, 321, 270, 320, 271
122, 221, 321, 223, 271, 272, 222
123, 223, 321, 323, 272, 322, 273
124, 223, 323, 225, 273, 274, 224
125, 225, 323, 325, 274, 324, 275
126, 225, 325, 227, 275, 276, 226
127, 227, 325, 327, 276, 326, 277
128, 227, 327, 229, 277, 278, 228
129, 229, 327, 329, 278, 328, 279
130, 229, 329, 231, 279, 280, 230
131, 231, 329, 331, 280, 330, 281
132, 231, 331, 233, 281, 282, 232
133, 233, 331, 333, 282, 332, 283
134, 233, 333, 235, 283, 284, 234
135, 235, 333, 335, 284, 334, 285
136, 235, 335, 237, 285, 286, 236
137, 237, 335, 337, 286, 336, 287
138, 237, 337, 239, 287, 288, 238
139, 239, 337, 339, 288, 338, 289
140, 239, 339, 241, 289, 290, 240
141, 241, 339, 341, 290, 340, 291
142, 241, 341, 243, 291, 292, 242
143, 243, 341, 343, 292, 342, 293
144, 243, 343, 245, 293, 294, 244
145, 295, 393, 395, 344, 394, 345
146, 295, 395, 297, 345, 346, 296
147, 297, 395, 397, 346, 396, 347
148, 297, 397, 299, 347, 348, 298
149, 299, 397, 399, 348, 398, 349
150, 299, 399, 301, 349, 350, 300
151, 301, 399, 401, 350, 400, 351
152, 301, 401, 303, 351, 352, 302
153, 303, 401, 403, 352, 402, 353
154, 303, 403, 305, 353, 354, 304
155, 305, 403, 405, 354, 404, 355
156, 305, 405, 307, 355, 356, 306
157, 307, 405, 407, 356, 406, 357
158, 307, 407, 309, 357, 358, 308
159, 309, 407, 409, 358, 408, 359
160, 309, 409, 311, 359, 360, 310
161, 311, 409, 411, 360, 410, 361
162, 311, 411, 313, 361, 362, 312
163, 313, 411, 413, 362, 412, 363
164, 313, 413, 315, 363, 364, 314
165, 315, 413, 415, 364, 414, 365
166, 315, 415, 317, 365, 366, 316
167, 317, 415, 417, 366, 416, 367
168, 317, 417, 319, 367, 368, 318
169, 319, 417, 419, 368, 418, 369
170, 319, 419, 321, 369, 370, 320
171, 321, 419, 421, 370, 420, 371
172, 321, 421, 323, 371, 372, 322
173, 323, 421, 423, 372, 422, 373
174, 323, 423, 325, 373, 374, 324
175, 325, 423, 425, 374, 424, 375
176, 325, 425, 327, 375, 376, 326
177, 327, 425, 427, 376, 426, 377
178, 327, 427, 329, 377, 378, 328
179, 329, 427, 429, 378, 428, 379
180, 329, 429, 331, 379, 380, 330
181, 331, 429, 431, 380, 430, 381
182, 331, 431, 333, 381, 382, 332
183, 333, 431, 433, 382, 432, 383
184, 333, 433, 335, 383, 384, 334
185, 335, 433, 435, 384, 434, 385
186, 335, 435, 337, 385, 386, 336
187, 337, 435, 437, 386, 436, 387
188, 337, 437, 339, 387, 388, 338
189, 339, 437, 439, 388, 438, 389
190, 339, 439, 341, 389, 390, 340
191, 341, 439, 441, 390, 440, 391
192, 341, 441, 343, 391, 392, 342
193, 393, 491, 493, 442, 492, 443
194, 393, 493, 395, 443, 444, 394
195, 395, 493, 495, 444, 494, 445
196, 395, 495, 397, 445, 446, 396
197, 397, 495, 497, 446, 496, 447
198, 397, 497, 399, 447, 448, 398
199, 399, 497, 499, 448, 498, 449
200, 399, 499, 401, 449, 450, 400
201, 401, 499, 501, 450, 500, 451
202, 401, 501, 403, 451, 452, 402
203, 403, 501, 503, 452, 502, 453
204, 403, 503, 405, 453, 454, 404
205, 405, 503, 505, 454, 504, 455
206, 405, 505, 407, 455, 456, 406
207, 407, 505, 507, 456, 506, 457
208, 407, 507, 409, 457, 458, 408
209, 409, 507, 509, 458, 508, 459
210, 409, 509, 411, 459, 460, 410
211, 411, 509, 511, 460, 510, 461
212, 411, 511, 413, 461, 462, 412
213, 413, 511, 513, 462, 512, 463
214, 413, 513, 415, 463, 464, 414
215, 415, 513, 515, 464, 514, 465
216, 415, 515, 417, 465, 466, 416
217, 417, 515, 517, 466, 516, 467
218, 417, 517, 419, 467, 468, 418
219, 419, 517, 519, 468, 518, 469
220, 419, 519, 421, 469, 470, 420
221, 421, 519, 521, 470, 520, 471
222, 421, 521, 423, 471, 472, 422
223, 423, 521, 523, 472, 522, 473
224, 423, 523, 425, 473, 474, 424
225, 425, 523, 525, 474, 524, 475
226, 425, 525, 427, 475, 476, 426
227, 427, 525, 527, 476, 526, 477
228, 427, 527, 429, 477, 478, 428
229, 429, 527, 529, 478, 528, 479
230, 429, 529, 431, 479, 480, 430
231, 431, 529, 531, 480, 530, 481
232, 431, 531, 433, 481, 482, 432
233, 433, 531, 533, 482, 532, 483
234, 433, 533, 435, 483, 484, 434
235, 435, 533, 535, 484, 534, 485
236, 435, 535, 437, 485, 486, 436
237, 437, 535, 537, 486, 536, 487
238, 437, 537, 439, 487, 488, 438
239, 439, 537, 539, 488, 538, 489
240, 439, 539, 441, 489, 490, 440
241, 491, 589, 591, 540, 590, 541
242, 491, 591, 493, 541, 542, 492
243, 493, 591, 593, 542, 592, 543
244, 493, 593, 495, 543, 544, 494
245, 495, 593, 595, 544, 594, 545
246, 495, 595, 497, 545, 546, 496
247, 497, 595, 597, 546, 596, 547
248, 497, 597, 499, 547, 548, 498
249, 499, 597, 599, 548, 598, 549
250, 499, 599, 501, 549, 550, 500
251, 501, 599, 601, 550, 600, 551
252, 501, 601, 503, 551, 552, 502
253, 503, 601, 603, 552, 602, 553
254, 503, 603, 505, 553, 554, 504
255, 505, 603, 605, 554, 604, 555
256, 505, 605, 507, 555, 556, 506
257, 507, 605, 607, 556, 606, 557
258, 507, 607, 509, 557, 558, 508
259, 509, 607, 609, 558, 608, 559
260, 509, 609, 511, 559, 560, 510
261, 511, 609, 611, 560, 610, 561
262, 511, 611, 513, 561, 562, 512
263, 513, 611, 613, 562, 612, 563
264, 513, 613, 515, 563, 564, 514
265, 515, 613, 615, 564, 614, 565
266, 515, 615, 517, 565, 566, 516
267, 517, 615, 617, 566, 616, 567
268, 517, 617, 519, 567, 568, 518
269, 519, 617, 619, 568, 618, 569
270, 519, 619, 521, 569, 570, 520
271, 521, 619, 621, 570, 620, 571
272, 521, 621, 523, 571, 572, 522
273, 523, 621, 623, 572, 622, 573
274, 523, 623, 525, 573, 574, 524
275, 525, 623, 625, 574, 624, 575
276, 525, 625, 527, 575, 576, 526
277, 527, 625, 627, 576, 626, 577
278, 527, 627, 529, 577, 578, 528
279, 529, 627, 629, 578, 628, 579
280, 529, 629, 531, 579, 580, 530
281, 531, 629, 631, 580, 630, 581
282, 531, 631, 533, 581, 582, 532
283, 533, 631, 633, 582, 632, 583
284, 533, 633, 535, 583, 584, 534
285, 535, 633, 635, 584, 634, 585
286, 535, 635, 537, 585, 586, 536
287, 537, 635, 637, 586, 636, 587
288, 537, 637, 539, 587, 588, 538
289, 589, 687, 689, 638, 688, 639
290, 589, 689, 591, 639, 640, 590
291, 591, 689, 691, 640, 690, 641
292, 591, 691, 593, 641, 642, 592
293, 593, 691, 693, 642, 692, 643
294, 593, 693, 595, 643, 644, 594
295, 595, 693, 695, 644, 694, 645
296, 595, 695, 597, 645, 646, 596
297, 597, 695, 697, 646, 696, 647
298, 597, 697, 599, 647, 648, 598
299, 599, 697, 699, 648, 698, 649
300, 599, 699, 601, 649, 650, 600
301, 601, 699, 701, 650, 700, 651
302, 601, 701, 603, 651, 652, 602
303, 603, 701, 703, 652, 702, 653
304, 603, 703, 605, 653, 654, 604
305, 605, 703, 705, 654, 704, 655
306, 605, 705, 607, 655, 656, 606
307, 607, 705, 707, 656, 706, 657
308, 607, 707, 609, 657, 658, 608
309, 609, 707, 709, 658, 708, 659
310, 609, 709, 611, 659, 660, 610
311, 611, 709, 711, 660, 710, 661
312, 611, 711, 613, 661, 662, 612
313, 613, 711, 713, 662, 712, 663
314, 613, 713, 615, 663, 664, 614
315, 615, 713, 715, 664, 714, 665
316, 615, 715, 617, 665, 666, 616
317, 617, 715, 717, 666, 716, 667
318, 617, 717, 619, 667, 668, 618
319, 619, 717, 719, 668, 718, 669
320, 619, 719, 621, 669, 670, 620
321, 621, 719, 721, 670, 720, 671
322, 621, 721, 623, 671, 672, 622
323, 623, 721, 723, 672, 722, 673
324, 623, 723, 625, 673, 674, 624
325, 625, 723, 725, 674, 724, 675
326, 625, 725, 627, 675, 676, 626
327, 627, 725, 727, 676, 726, 677
328, 627, 727, 629, 677, 678, 628
329, 629, 727, 729, 678, 728, 679
330, 629, 729, 631, 679, 680, 630
331, 631, 729, 731, 680, 730, 681
332, 631, 731, 633, 681, 682, 632
333, 633, 731, 733, 682, 732, 683
334, 633, 733, 635, 683, 684, 634
335, 635, 733, 735, 684, 734, 685
336, 635, 735, 637, 685, 686, 636
337, 687, 785, 787, 736, 786, 737
338, 687, 787, 689, 737, 738, 688
339, 689, 787, 789, 738, 788, 739
340, 689, 789, 691, 739, 740, 690
341, 691, 789, 791, 740, 790, 741
342, 691, 791, 693, 741, 742, 692
343, 693, 791, 793, 742, 792, 743
344, 693, 793, 695, 743, 744, 694
345, 695, 793, 795, 744, 794, 745
346, 695, 795, 697, 745, 746, 696
347, 697, 795, 797, 746, 796, 747
348, 697, 797, 699, 747, 748, 698
349, 699, 797, 799, 748, 798, 749
350, 699, 799, 701, 749, 750, 700
351, 701, 799, 801, 750, 800, 751
352, 701, 801, 703, 751, 752, 702
353, 703, 801, 803, 752, 802, 753
354, 703, 803, 705, 753, 754, 704
355, 705, 803, 805, 754, 804, 755
356, 705, 805, 707, 755, 756, 706
357, 707, 805, 807, 756, 806, 757
358, 707, 807, 709, 757, 758, 708
359, 709, 807, 809, 758, 808, 759
360, 709, 809, 711, 759, 760, 710
361, 711, 809, 811, 760, 810, 761
362, 711, 811, 713, 761, 762, 712
363, 713, 811, 813, 762, 812, 763
364, 713, 813, 715, 763, 764, 714
365, 715, 813, 815, 764, 814, 765
366, 715, 815, 717, 765, 766, 716
367, 717, 815, 817, 766, 816, 767
368, 717, 817, 719, 767, 768, 718
369, 719, 817, 819, 768, 818, 769
370, 719, 819, 721, 769, 770, 720
371, 721, 819, 821, 770, 820, 771
372, 721, 821, 723, 771, 772, 722
373, 723, 821, 823, 772, 822, 773
374, 723, 823, 725, 773, 774, 724
375, 725, 823, 825, 774, 824, 775
376, 725, 825, 727, 775, 776, 726
377, 727, 825, 827, 776, 826, 777
378, 727, 827, 729, 777, 778, 728
379, 729, 827, 829, 778, 828, 779
380, 729, 829, 731, 779, 780, 730
381, 731, 829, 831, 780, 830, 781
382, 731, 831, 733, 781, 782, 732
383, 733, 831, 833, 782, 832, 783
384, 733, 833, 735, 783, 784, 734
*ELSET, ELSET=OUTER
337, 339, 341, 343, 345, 347, 349, 351, 353, 355, 357, 359
361, 363, 365, 367, 369, 371, 373, 375, 377, 379, 381, 383
*NSET, NSET=D
1
*NSET, NSET=YS
1, 50, 99, 148, 197, 246, 295, 344, 393, 442, 491, 540
589, 638, 687, 736, 785
*NSET, NSET=XS
49, 98, 147, 196, 245, 294, 343, 392, 441, 490, 539, 588
637, 686, 735, 784, 833
*MATERIAL, NAME=STEEL
*ELASTIC
210000, 0.3
*SOLID SECTION, ELSET=MEM, MATERIAL=STEEL
100
*BOUNDARY
YS, 2, 2
XS, 1, 1
*STEP
*STATIC
*DLOAD
OUTER, P2, -10
*NODE FILE
U
*EL FILE
S
*END STEP
