*HEADING
NAFEMS LE6 skew plate, normal pressure, S8
Target: max principal stress at E (lower surface) = 0.802 MPa
** S8 24x24, centre node E = 913
*NODE
1, 0, 0, 0
2, 0.018042196, 0.010416667, 0
3, 0.036084392, 0.020833333, 0
4, 0.054126588, 0.03125, 0
5, 0.072168784, 0.041666667, 0
6, 0.09021098, 0.052083333, 0
7, 0.10825318, 0.0625, 0
8, 0.12629537, 0.072916667, 0
9, 0.14433757, 0.083333333, 0
10, 0.16237976, 0.09375, 0
11, 0.18042196, 0.10416667, 0
12, 0.19846416, 0.11458333, 0
13, 0.21650635, 0.125, 0
14, 0.23454855, 0.13541667, 0
15, 0.25259074, 0.14583333, 0
16, 0.27063294, 0.15625, 0
17, 0.28867513, 0.16666667, 0
18, 0.30671733, 0.17708333, 0
19, 0.32475953, 0.1875, 0
20, 0.34280172, 0.19791667, 0
21, 0.36084392, 0.20833333, 0
22, 0.37888611, 0.21875, 0
23, 0.39692831, 0.22916667, 0
24, 0.41497051, 0.23958333, 0
25, 0.4330127, 0.25, 0
26, 0.4510549, 0.26041667, 0
27, 0.46909709, 0.27083333, 0
28, 0.48713929, 0.28125, 0
29, 0.50518149, 0.29166667, 0
30, 0.52322368, 0.30208333, 0
31, 0.54126588, 0.3125, 0
32, 0.55930807, 0.32291667, 0
33, 0.57735027, 0.33333333, 0
34, 0.59539247, 0.34375, 0
35, 0.61343466, 0.35416667, 0
36, 0.63147686, 0.36458333, 0
37, 0.64951905, 0.375, 0
38, 0.66756125, 0.38541667, 0
39, 0.68560344, 0.39583333, 0
40, 0.70364564, 0.40625, 0
41, 0.72168784, 0.41666667, 0
42, 0.73973003, 0.42708333, 0
43, 0.75777223, 0.4375, 0
44, 0.77581442, 0.44791667, 0
45, 0.79385662, 0.45833333, 0
46, 0.81189882, 0.46875, 0
47, 0.82994101, 0.47916667, 0
48, 0.84798321, 0.48958333, 0
49, 0.8660254, 0.5, 0
50, 0.020833333, 0, 0
51, 0.056917725, 0.020833333, 0
52, 0.093002117, 0.041666667, 0
53, 0.12908651, 0.0625, 0
54, 0.1651709, 0.083333333, 0
55, 0.20125529, 0.10416667, 0
56, 0.23733968, 0.125, 0
57, 0.27342408, 0.14583333, 0
58, 0.30950847, 0.16666667, 0
59, 0.34559286, 0.1875, 0
60, 0.38167725, 0.20833333, 0
61, 0.41776164, 0.22916667, 0
62, 0.45384604, 0.25, 0
63, 0.48993043, 0.27083333, 0
64, 0.52601482, 0.29166667, 0
65, 0.56209921, 0.3125, 0
66, 0.5981836, 0.33333333, 0
67, 0.63426799, 0.35416667, 0
68, 0.67035239, 0.375, 0
69, 0.70643678, 0.39583333, 0
70, 0.74252117, 0.41666667, 0
71, 0.77860556, 0.4375, 0
72, 0.81468995, 0.45833333, 0
73, 0.85077435, 0.47916667, 0
74, 0.88685874, 0.5, 0
75, 0.041666667, 0, 0
76, 0.059708863, 0.010416667, 0
77, 0.077751058, 0.020833333, 0
78, 0.095793254, 0.03125, 0
79, 0.11383545, 0.041666667, 0
80, 0.13187765, 0.052083333, 0
81, 0.14991984, 0.0625, 0
82, 0.16796204, 0.072916667, 0
83, 0.18600423, 0.083333333, 0
84, 0.20404643, 0.09375, 0
85, 0.22208863, 0.10416667, 0
86, 0.24013082, 0.11458333, 0
87, 0.25817302, 0.125, 0
88, 0.27621521, 0.13541667, 0
89, 0.29425741, 0.14583333, 0
90, 0.31229961, 0.15625, 0
91, 0.3303418, 0.16666667, 0
92, 0.348384, 0.17708333, 0
93, 0.36642619, 0.1875, 0
94, 0.38446839, 0.19791667, 0
95, 0.40251058, 0.20833333, 0
96, 0.42055278, 0.21875, 0
97, 0.43859498, 0.22916667, 0
98, 0.45663717, 0.23958333, 0
99, 0.47467937, 0.25, 0
100, 0.49272156, 0.26041667, 0
101, 0.51076376, 0.27083333, 0
102, 0.52880596, 0.28125, 0
103, 0.54684815, 0.29166667, 0
104, 0.56489035, 0.30208333, 0
105, 0.58293254, 0.3125, 0
106, 0.60097474, 0.32291667, 0
107, 0.61901694, 0.33333333, 0
108, 0.63705913, 0.34375, 0
109, 0.65510133, 0.35416667, 0
110, 0.67314352, 0.36458333, 0
111, 0.69118572, 0.375, 0
112, 0.70922792, 0.38541667, 0
113, 0.72727011, 0.39583333, 0
114, 0.74531231, 0.40625, 0
115, 0.7633545, 0.41666667, 0
116, 0.7813967, 0.42708333, 0
117, 0.79943889, 0.4375, 0
118, 0.81748109, 0.44791667, 0
119, 0.83552329, 0.45833333, 0
120, 0.85356548, 0.46875, 0
121, 0.87160768, 0.47916667, 0
122, 0.88964987, 0.48958333, 0
123, 0.90769207, 0.5, 0
124, 0.0625, 0, 0
125, 0.098584392, 0.020833333, 0
126, 0.13466878, 0.041666667, 0
127, 0.17075318, 0.0625, 0
128, 0.20683757, 0.083333333, 0
129, 0.24292196, 0.10416667, 0
130, 0.27900635, 0.125, 0
131, 0.31509074, 0.14583333, 0
132, 0.35117513, 0.16666667, 0
133, 0.38725953, 0.1875, 0
134, 0.42334392, 0.20833333, 0
135, 0.45942831, 0.22916667, 0
136, 0.4955127, 0.25, 0
137, 0.53159709, 0.27083333, 0
138, 0.56768149, 0.29166667, 0
139, 0.60376588, 0.3125, 0
140, 0.63985027, 0.33333333, 0
141, 0.67593466, 0.35416667, 0
142, 0.71201905, 0.375, 0
143, 0.74810344, 0.39583333, 0
144, 0.78418784, 0.41666667, 0
145, 0.82027223, 0.4375, 0
146, 0.85635662, 0.45833333, 0
147, 0.89244101, 0.47916667, 0
148, 0.9285254, 0.5, 0
149, 0.083333333, 0, 0
150, 0.10137553, 0.010416667, 0
151, 0.11941773, 0.020833333, 0
152, 0.13745992, 0.03125, 0
153, 0.15550212, 0.041666667, 0
154, 0.17354431, 0.052083333, 0
155, 0.19158651, 0.0625, 0
156, 0.2096287, 0.072916667, 0
157, 0.2276709, 0.083333333, 0
158, 0.2457131, 0.09375, 0
159, 0.26375529, 0.10416667, 0
160, 0.28179749, 0.11458333, 0
161, 0.29983968, 0.125, 0
162, 0.31788188, 0.13541667, 0
163, 0.33592408, 0.14583333, 0
164, 0.35396627, 0.15625, 0
165, 0.37200847, 0.16666667, 0
166, 0.39005066, 0.17708333, 0
167, 0.40809286, 0.1875, 0
168, 0.42613506, 0.19791667, 0
169, 0.44417725, 0.20833333, 0
170, 0.46221945, 0.21875, 0
171, 0.48026164, 0.22916667, 0
172, 0.49830384, 0.23958333, 0
173, 0.51634604, 0.25, 0
174, 0.53438823, 0.26041667, 0
175, 0.55243043, 0.27083333, 0
176, 0.57047262, 0.28125, 0
177, 0.58851482, 0.29166667, 0
178, 0.60655701, 0.30208333, 0
179, 0.62459921, 0.3125, 0
180, 0.64264141, 0.32291667, 0
181, 0.6606836, 0.33333333, 0
182, 0.6787258, 0.34375, 0
183, 0.69676799, 0.35416667, 0
184, 0.71481019, 0.36458333, 0
185, 0.73285239, 0.375, 0
186, 0.75089458, 0.38541667, 0
187, 0.76893678, 0.39583333, 0
188, 0.78697897, 0.40625, 0
189, 0.80502117, 0.41666667, 0
190, 0.82306337, 0.42708333, 0
191, 0.84110556, 0.4375, 0
192, 0.85914776, 0.44791667, 0
193, 0.87718995, 0.45833333, 0
194, 0.89523215, 0.46875, 0
195, 0.91327435, 0.47916667, 0
196, 0.93131654, 0.48958333, 0
197, 0.94935874, 0.5, 0
198, 0.10416667, 0, 0
199, 0.14025106, 0.020833333, 0
200, 0.17633545, 0.041666667, 0
201, 0.21241984, 0.0625, 0
202, 0.24850423, 0.083333333, 0
203, 0.28458863, 0.10416667, 0
204, 0.32067302, 0.125, 0
205, 0.35675741, 0.14583333, 0
206, 0.3928418, 0.16666667, 0
207, 0.42892619, 0.1875, 0
208, 0.46501058, 0.20833333, 0
209, 0.50109498, 0.22916667, 0
210, 0.53717937, 0.25, 0
211, 0.57326376, 0.27083333, 0
212, 0.60934815, 0.29166667, 0
213, 0.64543254, 0.3125, 0
214, 0.68151694, 0.33333333, 0
215, 0.71760133, 0.35416667, 0
216, 0.75368572, 0.375, 0
217, 0.78977011, 0.39583333, 0
218, 0.8258545, 0.41666667, 0
219, 0.86193889, 0.4375, 0
220, 0.89802329, 0.45833333, 0
221, 0.93410768, 0.47916667, 0
222, 0.97019207, 0.5, 0
223, 0.125, 0, 0
224, 0.1430422, 0.010416667, 0
225, 0.16108439, 0.020833333, 0
226, 0.17912659, 0.03125, 0
227, 0.19716878, 0.041666667, 0
228, 0.21521098, 0.052083333, 0
229, 0.23325318, 0.0625, 0
230, 0.25129537, 0.072916667, 0
231, 0.26933757, 0.083333333, 0
232, 0.28737976, 0.09375, 0
233, 0.30542196, 0.10416667, 0
234, 0.32346416, 0.11458333, 0
235, 0.34150635, 0.125, 0
236, 0.35954855, 0.13541667, 0
237, 0.37759074, 0.14583333, 0
238, 0.39563294, 0.15625, 0
239, 0.41367513, 0.16666667, 0
240, 0.43171733, 0.17708333, 0
241, 0.44975953, 0.1875, 0
242, 0.46780172, 0.19791667, 0
243, 0.48584392, 0.20833333, 0
244, 0.50388611, 0.21875, 0
245, 0.52192831, 0.22916667, 0
246, 0.53997051, 0.23958333, 0
247, 0.5580127, 0.25, 0
248, 0.5760549, 0.26041667, 0
249, 0.59409709, 0.27083333, 0
250, 0.61213929, 0.28125, 0
251, 0.63018149, 0.29166667, 0
252, 0.64822368, 0.30208333, 0
253, 0.66626588, 0.3125, 0
254, 0.68430807, 0.32291667, 0
255, 0.70235027, 0.33333333, 0
256, 0.72039247, 0.34375, 0
257, 0.73843466, 0.35416667, 0
258, 0.75647686, 0.36458333, 0
259, 0.77451905, 0.375, 0
260, 0.79256125, 0.38541667, 0
261, 0.81060344, 0.39583333, 0
262, 0.82864564, 0.40625, 0
263, 0.84668784, 0.41666667, 0
264, 0.86473003, 0.42708333, 0
265, 0.88277223, 0.4375, 0
266, 0.90081442, 0.44791667, 0
267, 0.91885662, 0.45833333, 0
268, 0.93689882, 0.46875, 0
269, 0.95494101, 0.47916667, 0
270, 0.97298321, 0.48958333, 0
271, 0.9910254, 0.5, 0
272, 0.14583333, 0, 0
273, 0.18191773, 0.020833333, 0
274, 0.21800212, 0.041666667, 0
275, 0.25408651, 0.0625, 0
276, 0.2901709, 0.083333333, 0
277, 0.32625529, 0.10416667, 0
278, 0.36233968, 0.125, 0
279, 0.39842408, 0.14583333, 0
280, 0.43450847, 0.16666667, 0
281, 0.47059286, 0.1875, 0
282, 0.50667725, 0.20833333, 0
283, 0.54276164, 0.22916667, 0
284, 0.57884604, 0.25, 0
285, 0.61493043, 0.27083333, 0
286, 0.65101482, 0.29166667, 0
287, 0.68709921, 0.3125, 0
288, 0.7231836, 0.33333333, 0
289, 0.75926799, 0.35416667, 0
290, 0.79535239, 0.375, 0
291, 0.83143678, 0.39583333, 0
292, 0.86752117, 0.41666667, 0
293, 0.90360556, 0.4375, 0
294, 0.93968995, 0.45833333, 0
295, 0.97577435, 0.47916667, 0
296, 1.0118587, 0.5, 0
297, 0.16666667, 0, 0
298, 0.18470886, 0.010416667, 0
299, 0.20275106, 0.020833333, 0
300, 0.22079325, 0.03125, 0
301, 0.23883545, 0.041666667, 0
302, 0.25687765, 0.052083333, 0
303, 0.27491984, 0.0625, 0
304, 0.29296204, 0.072916667, 0
305, 0.31100423, 0.083333333, 0
306, 0.32904643, 0.09375, 0
307, 0.34708863, 0.10416667, 0
308, 0.36513082, 0.11458333, 0
309, 0.38317302, 0.125, 0
310, 0.40121521, 0.13541667, 0
311, 0.41925741, 0.14583333, 0
312, 0.43729961, 0.15625, 0
313, 0.4553418, 0.16666667, 0
314, 0.473384, 0.17708333, 0
315, 0.49142619, 0.1875, 0
316, 0.50946839, 0.19791667, 0
317, 0.52751058, 0.20833333, 0
318, 0.54555278, 0.21875, 0
319, 0.56359498, 0.22916667, 0
320, 0.58163717, 0.23958333, 0
321, 0.59967937, 0.25, 0
322, 0.61772156, 0.26041667, 0
323, 0.63576376, 0.27083333, 0
324, 0.65380596, 0.28125, 0
325, 0.67184815, 0.29166667, 0
326, 0.68989035, 0.30208333, 0
327, 0.70793254, 0.3125, 0
328, 0.72597474, 0.32291667, 0
329, 0.74401694, 0.33333333, 0
330, 0.76205913, 0.34375, 0
331, 0.78010133, 0.35416667, 0
332, 0.79814352, 0.36458333, 0
333, 0.81618572, 0.375, 0
334, 0.83422792, 0.38541667, 0
335, 0.85227011, 0.39583333, 0
336, 0.87031231, 0.40625, 0
337, 0.8883545, 0.41666667, 0
338, 0.9063967, 0.42708333, 0
339, 0.92443889, 0.4375, 0
340, 0.94248109, 0.44791667, 0
341, 0.96052329, 0.45833333, 0
342, 0.97856548, 0.46875, 0
343, 0.99660768, 0.47916667, 0
344, 1.0146499, 0.48958333, 0
345, 1.0326921, 0.5, 0
346, 0.1875, 0, 0
347, 0.22358439, 0.020833333, 0
348, 0.25966878, 0.041666667, 0
349, 0.29575318, 0.0625, 0
350, 0.33183757, 0.083333333, 0
351, 0.36792196, 0.10416667, 0
352, 0.40400635, 0.125, 0
353, 0.44009074, 0.14583333, 0
354, 0.47617513, 0.16666667, 0
355, 0.51225953, 0.1875, 0
356, 0.54834392, 0.20833333, 0
357, 0.58442831, 0.22916667, 0
358, 0.6205127, 0.25, 0
359, 0.65659709, 0.27083333, 0
360, 0.69268149, 0.29166667, 0
361, 0.72876588, 0.3125, 0
362, 0.76485027, 0.33333333, 0
363, 0.80093466, 0.35416667, 0
364, 0.83701905, 0.375, 0
365, 0.87310344, 0.39583333, 0
366, 0.90918784, 0.41666667, 0
367, 0.94527223, 0.4375, 0
368, 0.98135662, 0.45833333, 0
369, 1.017441, 0.47916667, 0
370, 1.0535254, 0.5, 0
371, 0.20833333, 0, 0
372, 0.22637553, 0.010416667, 0
373, 0.24441773, 0.020833333, 0
374, 0.26245992, 0.03125, 0
375, 0.28050212, 0.041666667, 0
376, 0.29854431, 0.052083333, 0
377, 0.31658651, 0.0625, 0
378, 0.3346287, 0.072916667, 0
379, 0.3526709, 0.083333333, 0
380, 0.3707131, 0.09375, 0
381, 0.38875529, 0.10416667, 0
382, 0.40679749, 0.11458333, 0
383, 0.42483968, 0.125, 0
384, 0.44288188, 0.13541667, 0
385, 0.46092408, 0.14583333, 0
386, 0.47896627, 0.15625, 0
387, 0.49700847, 0.16666667, 0
388, 0.51505066, 0.17708333, 0
389, 0.53309286, 0.1875, 0
390, 0.55113506, 0.19791667, 0
391, 0.56917725, 0.20833333, 0
392, 0.58721945, 0.21875, 0
393, 0.60526164, 0.22916667, 0
394, 0.62330384, 0.23958333, 0
395, 0.64134604, 0.25, 0
396, 0.65938823, 0.26041667, 0
397, 0.67743043, 0.27083333, 0
398, 0.69547262, 0.28125, 0
399, 0.71351482, 0.29166667, 0
400, 0.73155701, 0.30208333, 0
401, 0.74959921, 0.3125, 0
402, 0.76764141, 0.32291667, 0
403, 0.7856836, 0.33333333, 0
404, 0.8037258, 0.34375, 0
405, 0.82176799, 0.35416667, 0
406, 0.83981019, 0.36458333, 0
407, 0.85785239, 0.375, 0
408, 0.87589458, 0.38541667, 0
409, 0.89393678, 0.39583333, 0
410, 0.91197897, 0.40625, 0
411, 0.93002117, 0.41666667, 0
412, 0.94806337, 0.42708333, 0
413, 0.96610556, 0.4375, 0
414, 0.98414776, 0.44791667, 0
415, 1.00219, 0.45833333, 0
416, 1.0202321, 0.46875, 0
417, 1.0382743, 0.47916667, 0
418, 1.0563165, 0.48958333, 0
419, 1.0743587, 0.5, 0
420, 0.22916667, 0, 0
421, 0.26525106, 0.020833333, 0
422, 0.30133545, 0.041666667, 0
423, 0.33741984, 0.0625, 0
424, 0.37350423, 0.083333333, 0
425, 0.40958863, 0.10416667, 0
426, 0.44567302, 0.125, 0
427, 0.48175741, 0.14583333, 0
428, 0.5178418, 0.16666667, 0
429, 0.55392619, 0.1875, 0
430, 0.59001058, 0.20833333, 0
431, 0.62609498, 0.22916667, 0
432, 0.66217937, 0.25, 0
433, 0.69826376, 0.27083333, 0
434, 0.73434815, 0.29166667, 0
435, 0.77043254, 0.3125, 0
436, 0.80651694, 0.33333333, 0
437, 0.84260133, 0.35416667, 0
438, 0.87868572, 0.375, 0
439, 0.91477011, 0.39583333, 0
440, 0.9508545, 0.41666667, 0
441, 0.98693889, 0.4375, 0
442, 1.0230233, 0.45833333, 0
443, 1.0591077, 0.47916667, 0
444, 1.0951921, 0.5, 0
445, 0.25, 0, 0
446, 0.2680422, 0.010416667, 0
447, 0.28608439, 0.020833333, 0
448, 0.30412659, 0.03125, 0
449, 0.32216878, 0.041666667, 0
450, 0.34021098, 0.052083333, 0
451, 0.35825318, 0.0625, 0
452, 0.37629537, 0.072916667, 0
453, 0.39433757, 0.083333333, 0
454, 0.41237976, 0.09375, 0
455, 0.43042196, 0.10416667, 0
456, 0.44846416, 0.11458333, 0
457, 0.46650635, 0.125, 0
458, 0.48454855, 0.13541667, 0
459, 0.50259074, 0.14583333, 0
460, 0.52063294, 0.15625, 0
461, 0.53867513, 0.16666667, 0
462, 0.55671733, 0.17708333, 0
463, 0.57475953, 0.1875, 0
464, 0.59280172, 0.19791667, 0
465, 0.61084392, 0.20833333, 0
466, 0.62888611, 0.21875, 0
467, 0.64692831, 0.22916667, 0
468, 0.66497051, 0.23958333, 0
469, 0.6830127, 0.25, 0
470, 0.7010549, 0.26041667, 0
471, 0.71909709, 0.27083333, 0
472, 0.73713929, 0.28125, 0
473, 0.75518149, 0.29166667, 0
474, 0.77322368, 0.30208333, 0
475, 0.79126588, 0.3125, 0
476, 0.80930807, 0.32291667, 0
477, 0.82735027, 0.33333333, 0
478, 0.84539247, 0.34375, 0
479, 0.86343466, 0.35416667, 0
480, 0.88147686, 0.36458333, 0
481, 0.89951905, 0.375, 0
482, 0.91756125, 0.38541667, 0
483, 0.93560344, 0.39583333, 0
484, 0.95364564, 0.40625, 0
485, 0.97168784, 0.41666667, 0
486, 0.98973003, 0.42708333, 0
487, 1.0077722, 0.4375, 0
488, 1.0258144, 0.44791667, 0
489, 1.0438566, 0.45833333, 0
490, 1.0618988, 0.46875, 0
491, 1.079941, 0.47916667, 0
492, 1.0979832, 0.48958333, 0
493, 1.1160254, 0.5, 0
494, 0.27083333, 0, 0
495, 0.30691773, 0.020833333, 0
496, 0.34300212, 0.041666667, 0
497, 0.37908651, 0.0625, 0
498, 0.4151709, 0.083333333, 0
499, 0.45125529, 0.10416667, 0
500, 0.48733968, 0.125, 0
501, 0.52342408, 0.14583333, 0
502, 0.55950847, 0.16666667, 0
503, 0.59559286, 0.1875, 0
504, 0.63167725, 0.20833333, 0
505, 0.66776164, 0.22916667, 0
506, 0.70384604, 0.25, 0
507, 0.73993043, 0.27083333, 0
508, 0.77601482, 0.29166667, 0
509, 0.81209921, 0.3125, 0
510, 0.8481836, 0.33333333, 0
511, 0.88426799, 0.35416667, 0
512, 0.92035239, 0.375, 0
513, 0.95643678, 0.39583333, 0
514, 0.99252117, 0.41666667, 0
515, 1.0286056, 0.4375, 0
516, 1.06469, 0.45833333, 0
517, 1.1007743, 0.47916667, 0
518, 1.1368587, 0.5, 0
519, 0.29166667, 0, 0
520, 0.30970886, 0.010416667, 0
521, 0.32775106, 0.020833333, 0
522, 0.34579325, 0.03125, 0
523, 0.36383545, 0.041666667, 0
524, 0.38187765, 0.052083333, 0
525, 0.39991984, 0.0625, 0
526, 0.41796204, 0.072916667, 0
527, 0.43600423, 0.083333333, 0
528, 0.45404643, 0.09375, 0
529, 0.47208863, 0.10416667, 0
530, 0.49013082, 0.11458333, 0
531, 0.50817302, 0.125, 0
532, 0.52621521, 0.13541667, 0
533, 0.54425741, 0.14583333, 0
534, 0.56229961, 0.15625, 0
535, 0.5803418, 0.16666667, 0
536, 0.598384, 0.17708333, 0
537, 0.61642619, 0.1875, 0
538, 0.63446839, 0.19791667, 0
539, 0.65251058, 0.20833333, 0
540, 0.67055278, 0.21875, 0
541, 0.68859498, 0.22916667, 0
542, 0.70663717, 0.23958333, 0
543, 0.72467937, 0.25, 0
544, 0.74272156, 0.26041667, 0
545, 0.76076376, 0.27083333, 0
546, 0.77880596, 0.28125, 0
547, 0.79684815, 0.29166667, 0
548, 0.81489035, 0.30208333, 0
549, 0.83293254, 0.3125, 0
550, 0.85097474, 0.32291667, 0
551, 0.86901694, 0.33333333, 0
552, 0.88705913, 0.34375, 0
553, 0.90510133, 0.35416667, 0
554, 0.92314352, 0.36458333, 0
555, 0.94118572, 0.375, 0
556, 0.95922792, 0.38541667, 0
557, 0.97727011, 0.39583333, 0
558, 0.99531231, 0.40625, 0
559, 1.0133545, 0.41666667, 0
560, 1.0313967, 0.42708333, 0
561, 1.0494389, 0.4375, 0
562, 1.0674811, 0.44791667, 0
563, 1.0855233, 0.45833333, 0
564, 1.1035655, 0.46875, 0
565, 1.1216077, 0.47916667, 0
566, 1.1396499, 0.48958333, 0
567, 1.1576921, 0.5, 0
568, 0.3125, 0, 0
569, 0.34858439, 0.020833333, 0
570, 0.38466878, 0.041666667, 0
571, 0.42075318, 0.0625, 0
572, 0.45683757, 0.083333333, 0
573, 0.49292196, 0.10416667, 0
574, 0.52900635, 0.125, 0
575, 0.56509074, 0.14583333, 0
576, 0.60117513, 0.16666667, 0
577, 0.63725953, 0.1875, 0
578, 0.67334392, 0.20833333, 0
579, 0.70942831, 0.22916667, 0
580, 0.7455127, 0.25, 0
581, 0.78159709, 0.27083333, 0
582, 0.81768149, 0.29166667, 0
583, 0.85376588, 0.3125, 0
584, 0.88985027, 0.33333333, 0
585, 0.92593466, 0.35416667, 0
586, 0.96201905, 0.375, 0
587, 0.99810344, 0.39583333, 0
588, 1.0341878, 0.41666667, 0
589, 1.0702722, 0.4375, 0
590, 1.1063566, 0.45833333, 0
591, 1.142441, 0.47916667, 0
592, 1.1785254, 0.5, 0
593, 0.33333333, 0, 0
594, 0.35137553, 0.010416667, 0
595, 0.36941773, 0.020833333, 0
596, 0.38745992, 0.03125, 0
597, 0.40550212, 0.041666667, 0
598, 0.42354431, 0.052083333, 0
599, 0.44158651, 0.0625, 0
600, 0.4596287, 0.072916667, 0
601, 0.4776709, 0.083333333, 0
602, 0.4957131, 0.09375, 0
603, 0.51375529, 0.10416667, 0
604, 0.53179749, 0.11458333, 0
605, 0.54983968, 0.125, 0
606, 0.56788188, 0.13541667, 0
607, 0.58592408, 0.14583333, 0
608, 0.60396627, 0.15625, 0
609, 0.62200847, 0.16666667, 0
610, 0.64005066, 0.17708333, 0
611, 0.65809286, 0.1875, 0
612, 0.67613506, 0.19791667, 0
613, 0.69417725, 0.20833333, 0
614, 0.71221945, 0.21875, 0
615, 0.73026164, 0.22916667, 0
616, 0.74830384, 0.23958333, 0
617, 0.76634604, 0.25, 0
618, 0.78438823, 0.26041667, 0
619, 0.80243043, 0.27083333, 0
620, 0.82047262, 0.28125, 0
621, 0.83851482, 0.29166667, 0
622, 0.85655701, 0.30208333, 0
623, 0.87459921, 0.3125, 0
624, 0.89264141, 0.32291667, 0
625, 0.9106836, 0.33333333, 0
626, 0.9287258, 0.34375, 0
627, 0.94676799, 0.35416667, 0
628, 0.96481019, 0.36458333, 0
629, 0.98285239, 0.375, 0
630, 1.0008946, 0.38541667, 0
631, 1.0189368, 0.39583333, 0
632, 1.036979, 0.40625, 0
633, 1.0550212, 0.41666667, 0
634, 1.0730634, 0.42708333, 0
635, 1.0911056, 0.4375, 0
636, 1.1091478, 0.44791667, 0
637, 1.12719, 0.45833333, 0
638, 1.1452321, 0.46875, 0
639, 1.1632743, 0.47916667, 0
640, 1.1813165, 0.48958333, 0
641, 1.1993587, 0.5, 0
642, 0.35416667, 0, 0
643, 0.39025106, 0.020833333, 0
644, 0.42633545, 0.041666667, 0
645, 0.46241984, 0.0625, 0
646, 0.49850423, 0.083333333, 0
647, 0.53458863, 0.10416667, 0
648, 0.57067302, 0.125, 0
649, 0.60675741, 0.14583333, 0
650, 0.6428418, 0.16666667, 0
651, 0.67892619, 0.1875, 0
652, 0.71501058, 0.20833333, 0
653, 0.75109498, 0.22916667, 0
654, 0.78717937, 0.25, 0
655, 0.82326376, 0.27083333, 0
656, 0.85934815, 0.29166667, 0
657, 0.89543254, 0.3125, 0
658, 0.93151694, 0.33333333, 0
659, 0.96760133, 0.35416667, 0
660, 1.0036857, 0.375, 0
661, 1.0397701, 0.39583333, 0
662, 1.0758545, 0.41666667, 0
663, 1.1119389, 0.4375, 0
664, 1.1480233, 0.45833333, 0
665, 1.1841077, 0.47916667, 0
666, 1.2201921, 0.5, 0
667, 0.375, 0, 0
668, 0.3930422, 0.010416667, 0
669, 0.41108439, 0.020833333, 0
670, 0.42912659, 0.03125, 0
671, 0.44716878, 0.041666667, 0
672, 0.46521098, 0.052083333, 0
673, 0.48325318, 0.0625, 0
674, 0.50129537, 0.072916667, 0
675, 0.51933757, 0.083333333, 0
676, 0.53737976, 0.09375, 0
677, 0.55542196, 0.10416667, 0
678, 0.57346416, 0.11458333, 0
679, 0.59150635, 0.125, 0
680, 0.60954855, 0.13541667, 0
681, 0.62759074, 0.14583333, 0
682, 0.64563294, 0.15625, 0
683, 0.66367513, 0.16666667, 0
684, 0.68171733, 0.17708333, 0
685, 0.69975953, 0.1875, 0
686, 0.71780172, 0.19791667, 0
687, 0.73584392, 0.20833333, 0
688, 0.75388611, 0.21875, 0
689, 0.77192831, 0.22916667, 0
690, 0.78997051, 0.23958333, 0
691, 0.8080127, 0.25, 0
692, 0.8260549, 0.26041667, 0
693, 0.84409709, 0.27083333, 0
694, 0.86213929, 0.28125, 0
695, 0.88018149, 0.29166667, 0
696, 0.89822368, 0.30208333, 0
697, 0.91626588, 0.3125, 0
698, 0.93430807, 0.32291667, 0
699, 0.95235027, 0.33333333, 0
700, 0.97039247, 0.34375, 0
701, 0.98843466, 0.35416667, 0
702, 1.0064769, 0.36458333, 0
703, 1.0245191, 0.375, 0
704, 1.0425612, 0.38541667, 0
705, 1.0606034, 0.39583333, 0
706, 1.0786456, 0.40625, 0
707, 1.0966878, 0.41666667, 0
708, 1.11473, 0.42708333, 0
709, 1.1327722, 0.4375, 0
710, 1.1508144, 0.44791667, 0
711, 1.1688566, 0.45833333, 0
712, 1.1868988, 0.46875, 0
713, 1.204941, 0.47916667, 0
714, 1.2229832, 0.48958333, 0
715, 1.2410254, 0.5, 0
716, 0.39583333, 0, 0
717, 0.43191773, 0.020833333, 0
718, 0.46800212, 0.041666667, 0
719, 0.50408651, 0.0625, 0
720, 0.5401709, 0.083333333, 0
721, 0.57625529, 0.10416667, 0
722, 0.61233968, 0.125, 0
723, 0.64842408, 0.14583333, 0
724, 0.68450847, 0.16666667, 0
725, 0.72059286, 0.1875, 0
726, 0.75667725, 0.20833333, 0
727, 0.79276164, 0.22916667, 0
728, 0.82884604, 0.25, 0
729, 0.86493043, 0.27083333, 0
730, 0.90101482, 0.29166667, 0
731, 0.93709921, 0.3125, 0
732, 0.9731836, 0.33333333, 0
733, 1.009268, 0.35416667, 0
734, 1.0453524, 0.375, 0
735, 1.0814368, 0.39583333, 0
736, 1.1175212, 0.41666667, 0
737, 1.1536056, 0.4375, 0
738, 1.18969, 0.45833333, 0
739, 1.2257743, 0.47916667, 0
740, 1.2618587, 0.5, 0
741, 0.41666667, 0, 0
742, 0.43470886, 0.010416667, 0
743, 0.45275106, 0.020833333, 0
744, 0.47079325, 0.03125, 0
745, 0.48883545, 0.041666667, 0
746, 0.50687765, 0.052083333, 0
747, 0.52491984, 0.0625, 0
748, 0.54296204, 0.072916667, 0
749, 0.56100423, 0.083333333, 0
750, 0.57904643, 0.09375, 0
751, 0.59708863, 0.10416667, 0
752, 0.61513082, 0.11458333, 0
753, 0.63317302, 0.125, 0
754, 0.65121521, 0.13541667, 0
755, 0.66925741, 0.14583333, 0
756, 0.68729961, 0.15625, 0
757, 0.7053418, 0.16666667, 0
758, 0.723384, 0.17708333, 0
759, 0.74142619, 0.1875, 0
760, 0.75946839, 0.19791667, 0
761, 0.77751058, 0.20833333, 0
762, 0.79555278, 0.21875, 0
763, 0.81359498, 0.22916667, 0
764, 0.83163717, 0.23958333, 0
765, 0.84967937, 0.25, 0
766, 0.86772156, 0.26041667, 0
767, 0.88576376, 0.27083333, 0
768, 0.90380596, 0.28125, 0
769, 0.92184815, 0.29166667, 0
770, 0.93989035, 0.30208333, 0
771, 0.95793254, 0.3125, 0
772, 0.97597474, 0.32291667, 0
773, 0.99401694, 0.33333333, 0
774, 1.0120591, 0.34375, 0
775, 1.0301013, 0.35416667, 0
776, 1.0481435, 0.36458333, 0
777, 1.0661857, 0.375, 0
778, 1.0842279, 0.38541667, 0
779, 1.1022701, 0.39583333, 0
780, 1.1203123, 0.40625, 0
781, 1.1383545, 0.41666667, 0
782, 1.1563967, 0.42708333, 0
783, 1.1744389, 0.4375, 0
784, 1.1924811, 0.44791667, 0
785, 1.2105233, 0.45833333, 0
786, 1.2285655, 0.46875, 0
787, 1.2466077, 0.47916667, 0
788, 1.2646499, 0.48958333, 0
789, 1.2826921, 0.5, 0
790, 0.4375, 0, 0
791, 0.47358439, 0.020833333, 0
792, 0.50966878, 0.041666667, 0
793, 0.54575318, 0.0625, 0
794, 0.58183757, 0.083333333, 0
795, 0.61792196, 0.10416667, 0
796, 0.65400635, 0.125, 0
797, 0.69009074, 0.14583333, 0
798, 0.72617513, 0.16666667, 0
799, 0.76225953, 0.1875, 0
800, 0.79834392, 0.20833333, 0
801, 0.83442831, 0.22916667, 0
802, 0.8705127, 0.25, 0
803, 0.90659709, 0.27083333, 0
804, 0.94268149, 0.29166667, 0
805, 0.97876588, 0.3125, 0
806, 1.0148503, 0.33333333, 0
807, 1.0509347, 0.35416667, 0
808, 1.0870191, 0.375, 0
809, 1.1231034, 0.39583333, 0
810, 1.1591878, 0.41666667, 0
811, 1.1952722, 0.4375, 0
812, 1.2313566, 0.45833333, 0
813, 1.267441, 0.47916667, 0
814, 1.3035254, 0.5, 0
815, 0.45833333, 0, 0
816, 0.47637553, 0.010416667, 0
817, 0.49441773, 0.020833333, 0
818, 0.51245992, 0.03125, 0
819, 0.53050212, 0.041666667, 0
820, 0.54854431, 0.052083333, 0
821, 0.56658651, 0.0625, 0
822, 0.5846287, 0.072916667, 0
823, 0.6026709, 0.083333333, 0
824, 0.6207131, 0.09375, 0
825, 0.63875529, 0.10416667, 0
826, 0.65679749, 0.11458333, 0
827, 0.67483968, 0.125, 0
828, 0.69288188, 0.13541667, 0
829, 0.71092408, 0.14583333, 0
830, 0.72896627, 0.15625, 0
831, 0.74700847, 0.16666667, 0
832, 0.76505066, 0.17708333, 0
833, 0.78309286, 0.1875, 0
834, 0.80113506, 0.19791667, 0
835, 0.81917725, 0.20833333, 0
836, 0.83721945, 0.21875, 0
837, 0.85526164, 0.22916667, 0
838, 0.87330384, 0.23958333, 0
839, 0.89134604, 0.25, 0
840, 0.90938823, 0.26041667, 0
841, 0.92743043, 0.27083333, 0
842, 0.94547262, 0.28125, 0
843, 0.96351482, 0.29166667, 0
844, 0.98155701, 0.30208333, 0
845, 0.99959921, 0.3125, 0
846, 1.0176414, 0.32291667, 0
847, 1.0356836, 0.33333333, 0
848, 1.0537258, 0.34375, 0
849, 1.071768, 0.35416667, 0
850, 1.0898102, 0.36458333, 0
851, 1.1078524, 0.375, 0
852, 1.1258946, 0.38541667, 0
853, 1.1439368, 0.39583333, 0
854, 1.161979, 0.40625, 0
855, 1.1800212, 0.41666667, 0
856, 1.1980634, 0.42708333, 0
857, 1.2161056, 0.4375, 0
858, 1.2341478, 0.44791667, 0
859, 1.25219, 0.45833333, 0
860, 1.2702321, 0.46875, 0
861, 1.2882743, 0.47916667, 0
862, 1.3063165, 0.48958333, 0
863, 1.3243587, 0.5, 0
864, 0.47916667, 0, 0
865, 0.51525106, 0.020833333, 0
866, 0.55133545, 0.041666667, 0
867, 0.58741984, 0.0625, 0
868, 0.62350423, 0.083333333, 0
869, 0.65958863, 0.10416667, 0
870, 0.69567302, 0.125, 0
871, 0.73175741, 0.14583333, 0
872, 0.7678418, 0.16666667, 0
873, 0.80392619, 0.1875, 0
874, 0.84001058, 0.20833333, 0
875, 0.87609498, 0.22916667, 0
876, 0.91217937, 0.25, 0
877, 0.94826376, 0.27083333, 0
878, 0.98434815, 0.29166667, 0
879, 1.0204325, 0.3125, 0
880, 1.0565169, 0.33333333, 0
881, 1.0926013, 0.35416667, 0
882, 1.1286857, 0.375, 0
883, 1.1647701, 0.39583333, 0
884, 1.2008545, 0.41666667, 0
885, 1.2369389, 0.4375, 0
886, 1.2730233, 0.45833333, 0
887, 1.3091077, 0.47916667, 0
888, 1.3451921, 0.5, 0
889, 0.5, 0, 0
890, 0.5180422, 0.010416667, 0
891, 0.53608439, 0.020833333, 0
892, 0.55412659, 0.03125, 0
893, 0.57216878, 0.041666667, 0
894, 0.59021098, 0.052083333, 0
895, 0.60825318, 0.0625, 0
896, 0.62629537, 0.072916667, 0
897, 0.64433757, 0.083333333, 0
898, 0.66237976, 0.09375, 0
899, 0.68042196, 0.10416667, 0
900, 0.69846416, 0.11458333, 0
901, 0.71650635, 0.125, 0
902, 0.73454855, 0.13541667, 0
903, 0.75259074, 0.14583333, 0
904, 0.77063294, 0.15625, 0
905, 0.78867513, 0.16666667, 0
906, 0.80671733, 0.17708333, 0
907, 0.82475953, 0.1875, 0
908, 0.84280172, 0.19791667, 0
909, 0.86084392, 0.20833333, 0
910, 0.87888611, 0.21875, 0
911, 0.89692831, 0.22916667, 0
912, 0.91497051, 0.23958333, 0
913, 0.9330127, 0.25, 0
914, 0.9510549, 0.26041667, 0
915, 0.96909709, 0.27083333, 0
916, 0.98713929, 0.28125, 0
917, 1.0051815, 0.29166667, 0
918, 1.0232237, 0.30208333, 0
919, 1.0412659, 0.3125, 0
920, 1.0593081, 0.32291667, 0
921, 1.0773503, 0.33333333, 0
922, 1.0953925, 0.34375, 0
923, 1.1134347, 0.35416667, 0
924, 1.1314769, 0.36458333, 0
925, 1.1495191, 0.375, 0
926, 1.1675612, 0.38541667, 0
927, 1.1856034, 0.39583333, 0
928, 1.2036456, 0.40625, 0
929, 1.2216878, 0.41666667, 0
930, 1.23973, 0.42708333, 0
931, 1.2577722, 0.4375, 0
932, 1.2758144, 0.44791667, 0
933, 1.2938566, 0.45833333, 0
934, 1.3118988, 0.46875, 0
935, 1.329941, 0.47916667, 0
936, 1.3479832, 0.48958333, 0
937, 1.3660254, 0.5, 0
938, 0.52083333, 0, 0
939, 0.55691773, 0.020833333, 0
940, 0.59300212, 0.041666667, 0
941, 0.62908651, 0.0625, 0
942, 0.6651709, 0.083333333, 0
943, 0.70125529, 0.10416667, 0
944, 0.73733968, 0.125, 0
945, 0.77342408, 0.14583333, 0
946, 0.80950847, 0.16666667, 0
947, 0.84559286, 0.1875, 0
948, 0.88167725, 0.20833333, 0
949, 0.91776164, 0.22916667, 0
950, 0.95384604, 0.25, 0
951, 0.98993043, 0.27083333, 0
952, 1.0260148, 0.29166667, 0
953, 1.0620992, 0.3125, 0
954, 1.0981836, 0.33333333, 0
955, 1.134268, 0.35416667, 0
956, 1.1703524, 0.375, 0
957, 1.2064368, 0.39583333, 0
958, 1.2425212, 0.41666667, 0
959, 1.2786056, 0.4375, 0
960, 1.31469, 0.45833333, 0
961, 1.3507743, 0.47916667, 0
962, 1.3868587, 0.5, 0
963, 0.54166667, 0, 0
964, 0.55970886, 0.010416667, 0
965, 0.57775106, 0.020833333, 0
966, 0.59579325, 0.03125, 0
967, 0.61383545, 0.041666667, 0
968, 0.63187765, 0.052083333, 0
969, 0.64991984, 0.0625, 0
970, 0.66796204, 0.072916667, 0
971, 0.68600423, 0.083333333, 0
972, 0.70404643, 0.09375, 0
973, 0.72208863, 0.10416667, 0
974, 0.74013082, 0.11458333, 0
975, 0.75817302, 0.125, 0
976, 0.77621521, 0.13541667, 0
977, 0.79425741, 0.14583333, 0
978, 0.81229961, 0.15625, 0
979, 0.8303418, 0.16666667, 0
980, 0.848384, 0.17708333, 0
981, 0.86642619, 0.1875, 0
982, 0.88446839, 0.19791667, 0
983, 0.90251058, 0.20833333, 0
984, 0.92055278, 0.21875, 0
985, 0.93859498, 0.22916667, 0
986, 0.95663717, 0.23958333, 0
987, 0.97467937, 0.25, 0
988, 0.99272156, 0.26041667, 0
989, 1.0107638, 0.27083333, 0
990, 1.028806, 0.28125, 0
991, 1.0468482, 0.29166667, 0
992, 1.0648903, 0.30208333, 0
993, 1.0829325, 0.3125, 0
994, 1.1009747, 0.32291667, 0
995, 1.1190169, 0.33333333, 0
996, 1.1370591, 0.34375, 0
997, 1.1551013, 0.35416667, 0
998, 1.1731435, 0.36458333, 0
999, 1.1911857, 0.375, 0
1000, 1.2092279, 0.38541667, 0
1001, 1.2272701, 0.39583333, 0
1002, 1.2453123, 0.40625, 0
1003, 1.2633545, 0.41666667, 0
1004, 1.2813967, 0.42708333, 0
1005, 1.2994389, 0.4375, 0
1006, 1.3174811, 0.44791667, 0
1007, 1.3355233, 0.45833333, 0
1008, 1.3535655, 0.46875, 0
1009, 1.3716077, 0.47916667, 0
1010, 1.3896499, 0.48958333, 0
1011, 1.4076921, 0.5, 0
1012, 0.5625, 0, 0
1013, 0.59858439, 0.020833333, 0
1014, 0.63466878, 0.041666667, 0
1015, 0.67075318, 0.0625, 0
1016, 0.70683757, 0.083333333, 0
1017, 0.74292196, 0.10416667, 0
1018, 0.77900635, 0.125, 0
1019, 0.81509074, 0.14583333, 0
1020, 0.85117513, 0.16666667, 0
1021, 0.88725953, 0.1875, 0
1022, 0.92334392, 0.20833333, 0
1023, 0.95942831, 0.22916667, 0
1024, 0.9955127, 0.25, 0
1025, 1.0315971, 0.27083333, 0
1026, 1.0676815, 0.29166667, 0
1027, 1.1037659, 0.3125, 0
1028, 1.1398503, 0.33333333, 0
1029, 1.1759347, 0.35416667, 0
1030, 1.2120191, 0.375, 0
1031, 1.2481034, 0.39583333, 0
1032, 1.2841878, 0.41666667, 0
1033, 1.3202722, 0.4375, 0
1034, 1.3563566, 0.45833333, 0
1035, 1.392441, 0.47916667, 0
1036, 1.4285254, 0.5, 0
1037, 0.58333333, 0, 0
1038, 0.60137553, 0.010416667, 0
1039, 0.61941773, 0.020833333, 0
1040, 0.63745992, 0.03125, 0
1041, 0.65550212, 0.041666667, 0
1042, 0.67354431, 0.052083333, 0
1043, 0.69158651, 0.0625, 0
1044, 0.7096287, 0.072916667, 0
1045, 0.7276709, 0.083333333, 0
1046, 0.7457131, 0.09375, 0
1047, 0.76375529, 0.10416667, 0
1048, 0.78179749, 0.11458333, 0
1049, 0.79983968, 0.125, 0
1050, 0.81788188, 0.13541667, 0
1051, 0.83592408, 0.14583333, 0
1052, 0.85396627, 0.15625, 0
1053, 0.87200847, 0.16666667, 0
1054, 0.89005066, 0.17708333, 0
1055, 0.90809286, 0.1875, 0
1056, 0.92613506, 0.19791667, 0
1057, 0.94417725, 0.20833333, 0
1058, 0.96221945, 0.21875, 0
1059, 0.98026164, 0.22916667, 0
1060, 0.99830384, 0.23958333, 0
1061, 1.016346, 0.25, 0
1062, 1.0343882, 0.26041667, 0
1063, 1.0524304, 0.27083333, 0
1064, 1.0704726, 0.28125, 0
1065, 1.0885148, 0.29166667, 0
1066, 1.106557, 0.30208333, 0
1067, 1.1245992, 0.3125, 0
1068, 1.1426414, 0.32291667, 0
1069, 1.1606836, 0.33333333, 0
1070, 1.1787258, 0.34375, 0
1071, 1.196768, 0.35416667, 0
1072, 1.2148102, 0.36458333, 0
1073, 1.2328524, 0.375, 0
1074, 1.2508946, 0.38541667, 0
1075, 1.2689368, 0.39583333, 0
1076, 1.286979, 0.40625, 0
1077, 1.3050212, 0.41666667, 0
1078, 1.3230634, 0.42708333, 0
1079, 1.3411056, 0.4375, 0
1080, 1.3591478, 0.44791667, 0
1081, 1.37719, 0.45833333, 0
1082, 1.3952321, 0.46875, 0
1083, 1.4132743, 0.47916667, 0
1084, 1.4313165, 0.48958333, 0
1085, 1.4493587, 0.5, 0
1086, 0.60416667, 0, 0
1087, 0.64025106, 0.020833333, 0
1088, 0.67633545, 0.041666667, 0
1089, 0.71241984, 0.0625, 0
1090, 0.74850423, 0.083333333, 0
1091, 0.78458863, 0.10416667, 0
1092, 0.82067302, 0.125, 0
1093, 0.85675741, 0.14583333, 0
1094, 0.8928418, 0.16666667, 0
1095, 0.92892619, 0.1875, 0
1096, 0.96501058, 0.20833333, 0
1097, 1.001095, 0.22916667, 0
1098, 1.0371794, 0.25, 0
1099, 1.0732638, 0.27083333, 0
1100, 1.1093482, 0.29166667, 0
1101, 1.1454325, 0.3125, 0
1102, 1.1815169, 0.33333333, 0
1103, 1.2176013, 0.35416667, 0
1104, 1.2536857, 0.375, 0
1105, 1.2897701, 0.39583333, 0
1106, 1.3258545, 0.41666667, 0
1107, 1.3619389, 0.4375, 0
1108, 1.3980233, 0.45833333, 0
1109, 1.4341077, 0.47916667, 0
1110, 1.4701921, 0.5, 0
1111, 0.625, 0, 0
1112, 0.6430422, 0.010416667, 0
1113, 0.66108439, 0.020833333, 0
1114, 0.67912659, 0.03125, 0
1115, 0.69716878, 0.041666667, 0
1116, 0.71521098, 0.052083333, 0
1117, 0.73325318, 0.0625, 0
1118, 0.75129537, 0.072916667, 0
1119, 0.76933757, 0.083333333, 0
1120, 0.78737976, 0.09375, 0
1121, 0.80542196, 0.10416667, 0
1122, 0.82346416, 0.11458333, 0
1123, 0.84150635, 0.125, 0
1124, 0.85954855, 0.13541667, 0
1125, 0.87759074, 0.14583333, 0
1126, 0.89563294, 0.15625, 0
1127, 0.91367513, 0.16666667, 0
1128, 0.93171733, 0.17708333, 0
1129, 0.94975953, 0.1875, 0
1130, 0.96780172, 0.19791667, 0
1131, 0.98584392, 0.20833333, 0
1132, 1.0038861, 0.21875, 0
1133, 1.0219283, 0.22916667, 0
1134, 1.0399705, 0.23958333, 0
1135, 1.0580127, 0.25, 0
1136, 1.0760549, 0.26041667, 0
1137, 1.0940971, 0.27083333, 0
1138, 1.1121393, 0.28125, 0
1139, 1.1301815, 0.29166667, 0
1140, 1.1482237, 0.30208333, 0
1141, 1.1662659, 0.3125, 0
1142, 1.1843081, 0.32291667, 0
1143, 1.2023503, 0.33333333, 0
1144, 1.2203925, 0.34375, 0
1145, 1.2384347, 0.35416667, 0
1146, 1.2564769, 0.36458333, 0
1147, 1.2745191, 0.375, 0
1148, 1.2925612, 0.38541667, 0
1149, 1.3106034, 0.39583333, 0
1150, 1.3286456, 0.40625, 0
1151, 1.3466878, 0.41666667, 0
1152, 1.36473, 0.42708333, 0
1153, 1.3827722, 0.4375, 0
1154, 1.4008144, 0.44791667, 0
1155, 1.4188566, 0.45833333, 0
1156, 1.4368988, 0.46875, 0
1157, 1.454941, 0.47916667, 0
1158, 1.4729832, 0.48958333, 0
1159, 1.4910254, 0.5, 0
1160, 0.64583333, 0, 0
1161, 0.68191773, 0.020833333, 0
1162, 0.71800212, 0.041666667, 0
1163, 0.75408651, 0.0625, 0
1164, 0.7901709, 0.083333333, 0
1165, 0.82625529, 0.10416667, 0
1166, 0.86233968, 0.125, 0
1167, 0.89842408, 0.14583333, 0
1168, 0.93450847, 0.16666667, 0
1169, 0.97059286, 0.1875, 0
1170, 1.0066773, 0.20833333, 0
1171, 1.0427616, 0.22916667, 0
1172, 1.078846, 0.25, 0
1173, 1.1149304, 0.27083333, 0
1174, 1.1510148, 0.29166667, 0
1175, 1.1870992, 0.3125, 0
1176, 1.2231836, 0.33333333, 0
1177, 1.259268, 0.35416667, 0
1178, 1.2953524, 0.375, 0
1179, 1.3314368, 0.39583333, 0
1180, 1.3675212, 0.41666667, 0
1181, 1.4036056, 0.4375, 0
1182, 1.43969, 0.45833333, 0
1183, 1.4757743, 0.47916667, 0
1184, 1.5118587, 0.5, 0
1185, 0.66666667, 0, 0
1186, 0.68470886, 0.010416667, 0
1187, 0.70275106, 0.020833333, 0
1188, 0.72079325, 0.03125, 0
1189, 0.73883545, 0.041666667, 0
1190, 0.75687765, 0.052083333, 0
1191, 0.77491984, 0.0625, 0
1192, 0.79296204, 0.072916667, 0
1193, 0.81100423, 0.083333333, 0
1194, 0.82904643, 0.09375, 0
1195, 0.84708863, 0.10416667, 0
1196, 0.86513082, 0.11458333, 0
1197, 0.88317302, 0.125, 0
1198, 0.90121521, 0.13541667, 0
1199, 0.91925741, 0.14583333, 0
1200, 0.93729961, 0.15625, 0
1201, 0.9553418, 0.16666667, 0
1202, 0.973384, 0.17708333, 0
1203, 0.99142619, 0.1875, 0
1204, 1.0094684, 0.19791667, 0
1205, 1.0275106, 0.20833333, 0
1206, 1.0455528, 0.21875, 0
1207, 1.063595, 0.22916667, 0
1208, 1.0816372, 0.23958333, 0
1209, 1.0996794, 0.25, 0
1210, 1.1177216, 0.26041667, 0
1211, 1.1357638, 0.27083333, 0
1212, 1.153806, 0.28125, 0
1213, 1.1718482, 0.29166667, 0
1214, 1.1898903, 0.30208333, 0
1215, 1.2079325, 0.3125, 0
1216, 1.2259747, 0.32291667, 0
1217, 1.2440169, 0.33333333, 0
1218, 1.2620591, 0.34375, 0
1219, 1.2801013, 0.35416667, 0
1220, 1.2981435, 0.36458333, 0
1221, 1.3161857, 0.375, 0
1222, 1.3342279, 0.38541667, 0
1223, 1.3522701, 0.39583333, 0
1224, 1.3703123, 0.40625, 0
1225, 1.3883545, 0.41666667, 0
1226, 1.4063967, 0.42708333, 0
1227, 1.4244389, 0.4375, 0
1228, 1.4424811, 0.44791667, 0
1229, 1.4605233, 0.45833333, 0
1230, 1.4785655, 0.46875, 0
1231, 1.4966077, 0.47916667, 0
1232, 1.5146499, 0.48958333, 0
1233, 1.5326921, 0.5, 0
1234, 0.6875, 0, 0
1235, 0.72358439, 0.020833333, 0
1236, 0.75966878, 0.041666667, 0
1237, 0.79575318, 0.0625, 0
1238, 0.83183757, 0.083333333, 0
1239, 0.86792196, 0.10416667, 0
1240, 0.90400635, 0.125, 0
1241, 0.94009074, 0.14583333, 0
1242, 0.97617513, 0.16666667, 0
1243, 1.0122595, 0.1875, 0
1244, 1.0483439, 0.20833333, 0
1245, 1.0844283, 0.22916667, 0
1246, 1.1205127, 0.25, 0
1247, 1.1565971, 0.27083333, 0
1248, 1.1926815, 0.29166667, 0
1249, 1.2287659, 0.3125, 0
1250, 1.2648503, 0.33333333, 0
1251, 1.3009347, 0.35416667, 0
1252, 1.3370191, 0.375, 0
1253, 1.3731034, 0.39583333, 0
1254, 1.4091878, 0.41666667, 0
1255, 1.4452722, 0.4375, 0
1256, 1.4813566, 0.45833333, 0
1257, 1.517441, 0.47916667, 0
1258, 1.5535254, 0.5, 0
1259, 0.70833333, 0, 0
1260, 0.72637553, 0.010416667, 0
1261, 0.74441773, 0.020833333, 0
1262, 0.76245992, 0.03125, 0
1263, 0.78050212, 0.041666667, 0
1264, 0.79854431, 0.052083333, 0
1265, 0.81658651, 0.0625, 0
1266, 0.8346287, 0.072916667, 0
1267, 0.8526709, 0.083333333, 0
1268, 0.8707131, 0.09375, 0
1269, 0.88875529, 0.10416667, 0
1270, 0.90679749, 0.11458333, 0
1271, 0.92483968, 0.125, 0
1272, 0.94288188, 0.13541667, 0
1273, 0.96092408, 0.14583333, 0
1274, 0.97896627, 0.15625, 0
1275, 0.99700847, 0.16666667, 0
1276, 1.0150507, 0.17708333, 0
1277, 1.0330929, 0.1875, 0
1278, 1.0511351, 0.19791667, 0
1279, 1.0691773, 0.20833333, 0
1280, 1.0872194, 0.21875, 0
1281, 1.1052616, 0.22916667, 0
1282, 1.1233038, 0.23958333, 0
1283, 1.141346, 0.25, 0
1284, 1.1593882, 0.26041667, 0
1285, 1.1774304, 0.27083333, 0
1286, 1.1954726, 0.28125, 0
1287, 1.2135148, 0.29166667, 0
1288, 1.231557, 0.30208333, 0
1289, 1.2495992, 0.3125, 0
1290, 1.2676414, 0.32291667, 0
1291, 1.2856836, 0.33333333, 0
1292, 1.3037258, 0.34375, 0
1293, 1.321768, 0.35416667, 0
1294, 1.3398102, 0.36458333, 0
1295, 1.3578524, 0.375, 0
1296, 1.3758946, 0.38541667, 0
1297, 1.3939368, 0.39583333, 0
1298, 1.411979, 0.40625, 0
1299, 1.4300212, 0.41666667, 0
1300, 1.4480634, 0.42708333, 0
1301, 1.4661056, 0.4375, 0
1302, 1.4841478, 0.44791667, 0
1303, 1.50219, 0.45833333, 0
1304, 1.5202321, 0.46875, 0
1305, 1.5382743, 0.47916667, 0
1306, 1.5563165, 0.48958333, 0
1307, 1.5743587, 0.5, 0
1308, 0.72916667, 0, 0
1309, 0.76525106, 0.020833333, 0
1310, 0.80133545, 0.041666667, 0
1311, 0.83741984, 0.0625, 0
1312, 0.87350423, 0.083333333, 0
1313, 0.90958863, 0.10416667, 0
1314, 0.94567302, 0.125, 0
1315, 0.98175741, 0.14583333, 0
1316, 1.0178418, 0.16666667, 0
1317, 1.0539262, 0.1875, 0
1318, 1.0900106, 0.20833333, 0
1319, 1.126095, 0.22916667, 0
1320, 1.1621794, 0.25, 0
1321, 1.1982638, 0.27083333, 0
1322, 1.2343482, 0.29166667, 0
1323, 1.2704325, 0.3125, 0
1324, 1.3065169, 0.33333333, 0
1325, 1.3426013, 0.35416667, 0
1326, 1.3786857, 0.375, 0
1327, 1.4147701, 0.39583333, 0
1328, 1.4508545, 0.41666667, 0
1329, 1.4869389, 0.4375, 0
1330, 1.5230233, 0.45833333, 0
1331, 1.5591077, 0.47916667, 0
1332, 1.5951921, 0.5, 0
1333, 0.75, 0, 0
1334, 0.7680422, 0.010416667, 0
1335, 0.78608439, 0.020833333, 0
1336, 0.80412659, 0.03125, 0
1337, 0.82216878, 0.041666667, 0
1338, 0.84021098, 0.052083333, 0
1339, 0.85825318, 0.0625, 0
1340, 0.87629537, 0.072916667, 0
1341, 0.89433757, 0.083333333, 0
1342, 0.91237976, 0.09375, 0
1343, 0.93042196, 0.10416667, 0
1344, 0.94846416, 0.11458333, 0
1345, 0.96650635, 0.125, 0
1346, 0.98454855, 0.13541667, 0
1347, 1.0025907, 0.14583333, 0
1348, 1.0206329, 0.15625, 0
1349, 1.0386751, 0.16666667, 0
1350, 1.0567173, 0.17708333, 0
1351, 1.0747595, 0.1875, 0
1352, 1.0928017, 0.19791667, 0
1353, 1.1108439, 0.20833333, 0
1354, 1.1288861, 0.21875, 0
1355, 1.1469283, 0.22916667, 0
1356, 1.1649705, 0.23958333, 0
1357, 1.1830127, 0.25, 0
1358, 1.2010549, 0.26041667, 0
1359, 1.2190971, 0.27083333, 0
1360, 1.2371393, 0.28125, 0
1361, 1.2551815, 0.29166667, 0
1362, 1.2732237, 0.30208333, 0
1363, 1.2912659, 0.3125, 0
1364, 1.3093081, 0.32291667, 0
1365, 1.3273503, 0.33333333, 0
1366, 1.3453925, 0.34375, 0
1367, 1.3634347, 0.35416667, 0
1368, 1.3814769, 0.36458333, 0
1369, 1.3995191, 0.375, 0
1370, 1.4175612, 0.38541667, 0
1371, 1.4356034, 0.39583333, 0
1372, 1.4536456, 0.40625, 0
1373, 1.4716878, 0.41666667, 0
1374, 1.48973, 0.42708333, 0
1375, 1.5077722, 0.4375, 0
1376, 1.5258144, 0.44791667, 0
1377, 1.5438566, 0.45833333, 0
1378, 1.5618988, 0.46875, 0
1379, 1.579941, 0.47916667, 0
1380, 1.5979832, 0.48958333, 0
1381, 1.6160254, 0.5, 0
1382, 0.77083333, 0, 0
1383, 0.80691773, 0.020833333, 0
1384, 0.84300212, 0.041666667, 0
1385, 0.87908651, 0.0625, 0
1386, 0.9151709, 0.083333333, 0
1387, 0.95125529, 0.10416667, 0
1388, 0.98733968, 0.125, 0
1389, 1.0234241, 0.14583333, 0
1390, 1.0595085, 0.16666667, 0
1391, 1.0955929, 0.1875, 0
1392, 1.1316773, 0.20833333, 0
1393, 1.1677616, 0.22916667, 0
1394, 1.203846, 0.25, 0
1395, 1.2399304, 0.27083333, 0
1396, 1.2760148, 0.29166667, 0
1397, 1.3120992, 0.3125, 0
1398, 1.3481836, 0.33333333, 0
1399, 1.384268, 0.35416667, 0
1400, 1.4203524, 0.375, 0
1401, 1.4564368, 0.39583333, 0
1402, 1.4925212, 0.41666667, 0
1403, 1.5286056, 0.4375, 0
1404, 1.56469, 0.45833333, 0
1405, 1.6007743, 0.47916667, 0
1406, 1.6368587, 0.5, 0
1407, 0.79166667, 0, 0
1408, 0.80970886, 0.010416667, 0
1409, 0.82775106, 0.020833333, 0
1410, 0.84579325, 0.03125, 0
1411, 0.86383545, 0.041666667, 0
1412, 0.88187765, 0.052083333, 0
1413, 0.89991984, 0.0625, 0
1414, 0.91796204, 0.072916667, 0
1415, 0.93600423, 0.083333333, 0
1416, 0.95404643, 0.09375, 0
1417, 0.97208863, 0.10416667, 0
1418, 0.99013082, 0.11458333, 0
1419, 1.008173, 0.125, 0
1420, 1.0262152, 0.13541667, 0
1421, 1.0442574, 0.14583333, 0
1422, 1.0622996, 0.15625, 0
1423, 1.0803418, 0.16666667, 0
1424, 1.098384, 0.17708333, 0
1425, 1.1164262, 0.1875, 0
1426, 1.1344684, 0.19791667, 0
1427, 1.1525106, 0.20833333, 0
1428, 1.1705528, 0.21875, 0
1429, 1.188595, 0.22916667, 0
1430, 1.2066372, 0.23958333, 0
1431, 1.2246794, 0.25, 0
1432, 1.2427216, 0.26041667, 0
1433, 1.2607638, 0.27083333, 0
1434, 1.278806, 0.28125, 0
1435, 1.2968482, 0.29166667, 0
1436, 1.3148903, 0.30208333, 0
1437, 1.3329325, 0.3125, 0
1438, 1.3509747, 0.32291667, 0
1439, 1.3690169, 0.33333333, 0
1440, 1.3870591, 0.34375, 0
1441, 1.4051013, 0.35416667, 0
1442, 1.4231435, 0.36458333, 0
1443, 1.4411857, 0.375, 0
1444, 1.4592279, 0.38541667, 0
1445, 1.4772701, 0.39583333, 0
1446, 1.4953123, 0.40625, 0
1447, 1.5133545, 0.41666667, 0
1448, 1.5313967, 0.42708333, 0
1449, 1.5494389, 0.4375, 0
1450, 1.5674811, 0.44791667, 0
1451, 1.5855233, 0.45833333, 0
1452, 1.6035655, 0.46875, 0
1453, 1.6216077, 0.47916667, 0
1454, 1.6396499, 0.48958333, 0
1455, 1.6576921, 0.5, 0
1456, 0.8125, 0, 0
1457, 0.84858439, 0.020833333, 0
1458, 0.88466878, 0.041666667, 0
1459, 0.92075318, 0.0625, 0
1460, 0.95683757, 0.083333333, 0
1461, 0.99292196, 0.10416667, 0
1462, 1.0290064, 0.125, 0
1463, 1.0650907, 0.14583333, 0
1464, 1.1011751, 0.16666667, 0
1465, 1.1372595, 0.1875, 0
1466, 1.1733439, 0.20833333, 0
1467, 1.2094283, 0.22916667, 0
1468, 1.2455127, 0.25, 0
1469, 1.2815971, 0.27083333, 0
1470, 1.3176815, 0.29166667, 0
1471, 1.3537659, 0.3125, 0
1472, 1.3898503, 0.33333333, 0
1473, 1.4259347, 0.35416667, 0
1474, 1.4620191, 0.375, 0
1475, 1.4981034, 0.39583333, 0
1476, 1.5341878, 0.41666667, 0
1477, 1.5702722, 0.4375, 0
1478, 1.6063566, 0.45833333, 0
1479, 1.642441, 0.47916667, 0
1480, 1.6785254, 0.5, 0
1481, 0.83333333, 0, 0
1482, 0.85137553, 0.010416667, 0
1483, 0.86941773, 0.020833333, 0
1484, 0.88745992, 0.03125, 0
1485, 0.90550212, 0.041666667, 0
1486, 0.92354431, 0.052083333, 0
1487, 0.94158651, 0.0625, 0
1488, 0.9596287, 0.072916667, 0
1489, 0.9776709, 0.083333333, 0
1490, 0.9957131, 0.09375, 0
1491, 1.0137553, 0.10416667, 0
1492, 1.0317975, 0.11458333, 0
1493, 1.0498397, 0.125, 0
1494, 1.0678819, 0.13541667, 0
1495, 1.0859241, 0.14583333, 0
1496, 1.1039663, 0.15625, 0
1497, 1.1220085, 0.16666667, 0
1498, 1.1400507, 0.17708333, 0
1499, 1.1580929, 0.1875, 0
1500, 1.1761351, 0.19791667, 0
1501, 1.1941773, 0.20833333, 0
1502, 1.2122194, 0.21875, 0
1503, 1.2302616, 0.22916667, 0
1504, 1.2483038, 0.23958333, 0
1505, 1.266346, 0.25, 0
1506, 1.2843882, 0.26041667, 0
1507, 1.3024304, 0.27083333, 0
1508, 1.3204726, 0.28125, 0
1509, 1.3385148, 0.29166667, 0
1510, 1.356557, 0.30208333, 0
1511, 1.3745992, 0.3125, 0
1512, 1.3926414, 0.32291667, 0
1513, 1.4106836, 0.33333333, 0
1514, 1.4287258, 0.34375, 0
1515, 1.446768, 0.35416667, 0
1516, 1.4648102, 0.36458333, 0
1517, 1.4828524, 0.375, 0
1518, 1.5008946, 0.38541667, 0
1519, 1.5189368, 0.39583333, 0
1520, 1.536979, 0.40625, 0
1521, 1.5550212, 0.41666667, 0
1522, 1.5730634, 0.42708333, 0
1523, 1.5911056, 0.4375, 0
1524, 1.6091478, 0.44791667, 0
1525, 1.62719, 0.45833333, 0
1526, 1.6452321, 0.46875, 0
1527, 1.6632743, 0.47916667, 0
1528, 1.6813165, 0.48958333, 0
1529, 1.6993587, 0.5, 0
1530, 0.85416667, 0, 0
1531, 0.89025106, 0.020833333, 0
1532, 0.92633545, 0.041666667, 0
1533, 0.96241984, 0.0625, 0
1534, 0.99850423, 0.083333333, 0
1535, 1.0345886, 0.10416667, 0
1536, 1.070673, 0.125, 0
1537, 1.1067574, 0.14583333, 0
1538, 1.1428418, 0.16666667, 0
1539, 1.1789262, 0.1875, 0
1540, 1.2150106, 0.20833333, 0
1541, 1.251095, 0.22916667, 0
1542, 1.2871794, 0.25, 0
1543, 1.3232638, 0.27083333, 0
1544, 1.3593482, 0.29166667, 0
1545, 1.3954325, 0.3125, 0
1546, 1.4315169, 0.33333333, 0
1547, 1.4676013, 0.35416667, 0
1548, 1.5036857, 0.375, 0
1549, 1.5397701, 0.39583333, 0
1550, 1.5758545, 0.41666667, 0
1551, 1.6119389, 0.4375, 0
1552, 1.6480233, 0.45833333, 0
1553, 1.6841077, 0.47916667, 0
1554, 1.7201921, 0.5, 0
1555, 0.875, 0, 0
1556, 0.8930422, 0.010416667, 0
1557, 0.91108439, 0.020833333, 0
1558, 0.92912659, 0.03125, 0
1559, 0.94716878, 0.041666667, 0
1560, 0.96521098, 0.052083333, 0
1561, 0.98325318, 0.0625, 0
1562, 1.0012954, 0.072916667, 0
1563, 1.0193376, 0.083333333, 0
1564, 1.0373798, 0.09375, 0
1565, 1.055422, 0.10416667, 0
1566, 1.0734642, 0.11458333, 0
1567, 1.0915064, 0.125, 0
1568, 1.1095485, 0.13541667, 0
1569, 1.1275907, 0.14583333, 0
1570, 1.1456329, 0.15625, 0
1571, 1.1636751, 0.16666667, 0
1572, 1.1817173, 0.17708333, 0
1573, 1.1997595, 0.1875, 0
1574, 1.2178017, 0.19791667, 0
1575, 1.2358439, 0.20833333, 0
1576, 1.2538861, 0.21875, 0
1577, 1.2719283, 0.22916667, 0
1578, 1.2899705, 0.23958333, 0
1579, 1.3080127, 0.25, 0
1580, 1.3260549, 0.26041667, 0
1581, 1.3440971, 0.27083333, 0
1582, 1.3621393, 0.28125, 0
1583, 1.3801815, 0.29166667, 0
1584, 1.3982237, 0.30208333, 0
1585, 1.4162659, 0.3125, 0
1586, 1.4343081, 0.32291667, 0
1587, 1.4523503, 0.33333333, 0
1588, 1.4703925, 0.34375, 0
1589, 1.4884347, 0.35416667, 0
1590, 1.5064769, 0.36458333, 0
1591, 1.5245191, 0.375, 0
1592, 1.5425612, 0.38541667, 0
1593, 1.5606034, 0.39583333, 0
1594, 1.5786456, 0.40625, 0
1595, 1.5966878, 0.41666667, 0
1596, 1.61473, 0.42708333, 0
1597, 1.6327722, 0.4375, 0
1598, 1.6508144, 0.44791667, 0
1599, 1.6688566, 0.45833333, 0
1600, 1.6868988, 0.46875, 0
1601, 1.704941, 0.47916667, 0
1602, 1.7229832, 0.48958333, 0
1603, 1.7410254, 0.5, 0
1604, 0.89583333, 0, 0
1605, 0.93191773, 0.020833333, 0
1606, 0.96800212, 0.041666667, 0
1607, 1.0040865, 0.0625, 0
1608, 1.0401709, 0.083333333, 0
1609, 1.0762553, 0.10416667, 0
1610, 1.1123397, 0.125, 0
1611, 1.1484241, 0.14583333, 0
1612, 1.1845085, 0.16666667, 0
1613, 1.2205929, 0.1875, 0
1614, 1.2566773, 0.20833333, 0
1615, 1.2927616, 0.22916667, 0
1616, 1.328846, 0.25, 0
1617, 1.3649304, 0.27083333, 0
1618, 1.4010148, 0.29166667, 0
1619, 1.4370992, 0.3125, 0
1620, 1.4731836, 0.33333333, 0
1621, 1.509268, 0.35416667, 0
1622, 1.5453524, 0.375, 0
1623, 1.5814368, 0.39583333, 0
1624, 1.6175212, 0.41666667, 0
1625, 1.6536056, 0.4375, 0
1626, 1.68969, 0.45833333, 0
1627, 1.7257743, 0.47916667, 0
1628, 1.7618587, 0.5, 0
1629, 0.91666667, 0, 0
1630, 0.93470886, 0.010416667, 0
1631, 0.95275106, 0.020833333, 0
1632, 0.97079325, 0.03125, 0
1633, 0.98883545, 0.041666667, 0
1634, 1.0068776, 0.052083333, 0
1635, 1.0249198, 0.0625, 0
1636, 1.042962, 0.072916667, 0
1637, 1.0610042, 0.083333333, 0
1638, 1.0790464, 0.09375, 0
1639, 1.0970886, 0.10416667, 0
1640, 1.1151308, 0.11458333, 0
1641, 1.133173, 0.125, 0
1642, 1.1512152, 0.13541667, 0
1643, 1.1692574, 0.14583333, 0
1644, 1.1872996, 0.15625, 0
1645, 1.2053418, 0.16666667, 0
1646, 1.223384, 0.17708333, 0
1647, 1.2414262, 0.1875, 0
1648, 1.2594684, 0.19791667, 0
1649, 1.2775106, 0.20833333, 0
1650, 1.2955528, 0.21875, 0
1651, 1.313595, 0.22916667, 0
1652, 1.3316372, 0.23958333, 0
1653, 1.3496794, 0.25, 0
1654, 1.3677216, 0.26041667, 0
1655, 1.3857638, 0.27083333, 0
1656, 1.403806, 0.28125, 0
1657, 1.4218482, 0.29166667, 0
1658, 1.4398903, 0.30208333, 0
1659, 1.4579325, 0.3125, 0
1660, 1.4759747, 0.32291667, 0
1661, 1.4940169, 0.33333333, 0
1662, 1.5120591, 0.34375, 0
1663, 1.5301013, 0.35416667, 0
1664, 1.5481435, 0.36458333, 0
1665, 1.5661857, 0.375, 0
1666, 1.5842279, 0.38541667, 0
1667, 1.6022701, 0.39583333, 0
1668, 1.6203123, 0.40625, 0
1669, 1.6383545, 0.41666667, 0
1670, 1.6563967, 0.42708333, 0
1671, 1.6744389, 0.4375, 0
1672, 1.6924811, 0.44791667, 0
1673, 1.7105233, 0.45833333, 0
1674, 1.7285655, 0.46875, 0
1675, 1.7466077, 0.47916667, 0
1676, 1.7646499, 0.48958333, 0
1677, 1.7826921, 0.5, 0
1678, 0.9375, 0, 0
1679, 0.97358439, 0.020833333, 0
1680, 1.0096688, 0.041666667, 0
1681, 1.0457532, 0.0625, 0
1682, 1.0818376, 0.083333333, 0
1683, 1.117922, 0.10416667, 0
1684, 1.1540064, 0.125, 0
1685, 1.1900907, 0.14583333, 0
1686, 1.2261751, 0.16666667, 0
1687, 1.2622595, 0.1875, 0
1688, 1.2983439, 0.20833333, 0
1689, 1.3344283, 0.22916667, 0
1690, 1.3705127, 0.25, 0
1691, 1.4065971, 0.27083333, 0
1692, 1.4426815, 0.29166667, 0
1693, 1.4787659, 0.3125, 0
1694, 1.5148503, 0.33333333, 0
1695, 1.5509347, 0.35416667, 0
1696, 1.5870191, 0.375, 0
1697, 1.6231034, 0.39583333, 0
1698, 1.6591878, 0.41666667, 0
1699, 1.6952722, 0.4375, 0
1700, 1.7313566, 0.45833333, 0
1701, 1.767441, 0.47916667, 0
1702, 1.8035254, 0.5, 0
1703, 0.95833333, 0, 0
1704, 0.97637553, 0.010416667, 0
1705, 0.99441773, 0.020833333, 0
1706, 1.0124599, 0.03125, 0
1707, 1.0305021, 0.041666667, 0
1708, 1.0485443, 0.052083333, 0
1709, 1.0665865, 0.0625, 0
1710, 1.0846287, 0.072916667, 0
1711, 1.1026709, 0.083333333, 0
1712, 1.1207131, 0.09375, 0
1713, 1.1387553, 0.10416667, 0
1714, 1.1567975, 0.11458333, 0
1715, 1.1748397, 0.125, 0
1716, 1.1928819, 0.13541667, 0
1717, 1.2109241, 0.14583333, 0
1718, 1.2289663, 0.15625, 0
1719, 1.2470085, 0.16666667, 0
1720, 1.2650507, 0.17708333, 0
1721, 1.2830929, 0.1875, 0
1722, 1.3011351, 0.19791667, 0
1723, 1.3191773, 0.20833333, 0
1724, 1.3372194, 0.21875, 0
1725, 1.3552616, 0.22916667, 0
1726, 1.3733038, 0.23958333, 0
1727, 1.391346, 0.25, 0
1728, 1.4093882, 0.26041667, 0
1729, 1.4274304, 0.27083333, 0
1730, 1.4454726, 0.28125, 0
1731, 1.4635148, 0.29166667, 0
1732, 1.481557, 0.30208333, 0
1733, 1.4995992, 0.3125, 0
1734, 1.5176414, 0.32291667, 0
1735, 1.5356836, 0.33333333, 0
1736, 1.5537258, 0.34375, 0
1737, 1.571768, 0.35416667, 0
1738, 1.5898102, 0.36458333, 0
1739, 1.6078524, 0.375, 0
1740, 1.6258946, 0.38541667, 0
1741, 1.6439368, 0.39583333, 0
1742, 1.661979, 0.40625, 0
1743, 1.6800212, 0.41666667, 0
1744, 1.6980634, 0.42708333, 0
1745, 1.7161056, 0.4375, 0
1746, 1.7341478, 0.44791667, 0
1747, 1.75219, 0.45833333, 0
1748, 1.7702321, 0.46875, 0
1749, 1.7882743, 0.47916667, 0
1750, 1.8063165, 0.48958333, 0
1751, 1.8243587, 0.5, 0
1752, 0.97916667, 0, 0
1753, 1.0152511, 0.020833333, 0
1754, 1.0513355, 0.041666667, 0
1755, 1.0874198, 0.0625, 0
1756, 1.1235042, 0.083333333, 0
1757, 1.1595886, 0.10416667, 0
1758, 1.195673, 0.125, 0
1759, 1.2317574, 0.14583333, 0
1760, 1.2678418, 0.16666667, 0
1761, 1.3039262, 0.1875, 0
1762, 1.3400106, 0.20833333, 0
1763, 1.376095, 0.22916667, 0
1764, 1.4121794, 0.25, 0
1765, 1.4482638, 0.27083333, 0
1766, 1.4843482, 0.29166667, 0
1767, 1.5204325, 0.3125, 0
1768, 1.5565169, 0.33333333, 0
1769, 1.5926013, 0.35416667, 0
1770, 1.6286857, 0.375, 0
1771, 1.6647701, 0.39583333, 0
1772, 1.7008545, 0.41666667, 0
1773, 1.7369389, 0.4375, 0
1774, 1.7730233, 0.45833333, 0
1775, 1.8091077, 0.47916667, 0
1776, 1.8451921, 0.5, 0
1777, 1, 0, 0
1778, 1.0180422, 0.010416667, 0
1779, 1.0360844, 0.020833333, 0
1780, 1.0541266, 0.03125, 0
1781, 1.0721688, 0.041666667, 0
1782, 1.090211, 0.052083333, 0
1783, 1.1082532, 0.0625, 0
1784, 1.1262954, 0.072916667, 0
1785, 1.1443376, 0.083333333, 0
1786, 1.1623798, 0.09375, 0
1787, 1.180422, 0.10416667, 0
1788, 1.1984642, 0.11458333, 0
1789, 1.2165064, 0.125, 0
1790, 1.2345485, 0.13541667, 0
1791, 1.2525907, 0.14583333, 0
1792, 1.2706329, 0.15625, 0
1793, 1.2886751, 0.16666667, 0
1794, 1.3067173, 0.17708333, 0
1795, 1.3247595, 0.1875, 0
1796, 1.3428017, 0.19791667, 0
1797, 1.3608439, 0.20833333, 0
1798, 1.3788861, 0.21875, 0
1799, 1.3969283, 0.22916667, 0
1800, 1.4149705, 0.23958333, 0
1801, 1.4330127, 0.25, 0
1802, 1.4510549, 0.26041667, 0
1803, 1.4690971, 0.27083333, 0
1804, 1.4871393, 0.28125, 0
1805, 1.5051815, 0.29166667, 0
1806, 1.5232237, 0.30208333, 0
1807, 1.5412659, 0.3125, 0
1808, 1.5593081, 0.32291667, 0
1809, 1.5773503, 0.33333333, 0
1810, 1.5953925, 0.34375, 0
1811, 1.6134347, 0.35416667, 0
1812, 1.6314769, 0.36458333, 0
1813, 1.6495191, 0.375, 0
1814, 1.6675612, 0.38541667, 0
1815, 1.6856034, 0.39583333, 0
1816, 1.7036456, 0.40625, 0
1817, 1.7216878, 0.41666667, 0
1818, 1.73973, 0.42708333, 0
1819, 1.7577722, 0.4375, 0
1820, 1.7758144, 0.44791667, 0
1821, 1.7938566, 0.45833333, 0
1822, 1.8118988, 0.46875, 0
1823, 1.829941, 0.47916667, 0
1824, 1.8479832, 0.48958333, 0
1825, 1.8660254, 0.5, 0
*ELEMENT, TYPE=S8, ELSET=PLATE
1, 1, 75, 77, 3, 50, 76, 51, 2
2, 3, 77, 79, 5, 51, 78, 52, 4
3, 5, 79, 81, 7, 52, 80, 53, 6
4, 7, 81, 83, 9, 53, 82, 54, 8
5, 9, 83, 85, 11, 54, 84, 55, 10
6, 11, 85, 87, 13, 55, 86, 56, 12
7, 13, 87, 89, 15, 56, 88, 57, 14
8, 15, 89, 91, 17, 57, 90, 58, 16
9, 17, 91, 93, 19, 58, 92, 59, 18
10, 19, 93, 95, 21, 59, 94, 60, 20
11, 21, 95, 97, 23, 60, 96, 61, 22
12, 23, 97, 99, 25, 61, 98, 62, 24
13, 25, 99, 101, 27, 62, 100, 63, 26
14, 27, 101, 103, 29, 63, 102, 64, 28
15, 29, 103, 105, 31, 64, 104, 65, 30
16, 31, 105, 107, 33, 65, 106, 66, 32
17, 33, 107, 109, 35, 66, 108, 67, 34
18, 35, 109, 111, 37, 67, 110, 68, 36
19, 37, 111, 113, 39, 68, 112, 69, 38
20, 39, 113, 115, 41, 69, 114, 70, 40
21, 41, 115, 117, 43, 70, 116, 71, 42
22, 43, 117, 119, 45, 71, 118, 72, 44
23, 45, 119, 121, 47, 72, 120, 73, 46
24, 47, 121, 123, 49, 73, 122, 74, 48
25, 75, 149, 151, 77, 124, 150, 125, 76
26, 77, 151, 153, 79, 125, 152, 126, 78
27, 79, 153, 155, 81, 126, 154, 127, 80
28, 81, 155, 157, 83, 127, 156, 128, 82
29, 83, 157, 159, 85, 128, 158, 129, 84
30, 85, 159, 161, 87, 129, 160, 130, 86
31, 87, 161, 163, 89, 130, 162, 131, 88
32, 89, 163, 165, 91, 131, 164, 132, 90
33, 91, 165, 167, 93, 132, 166, 133, 92
34, 93, 167, 169, 95, 133, 168, 134, 94
35, 95, 169, 171, 97, 134, 170, 135, 96
36, 97, 171, 173, 99, 135, 172, 136, 98
37, 99, 173, 175, 101, 136, 174, 137, 100
38, 101, 175, 177, 103, 137, 176, 138, 102
39, 103, 177, 179, 105, 138, 178, 139, 104
40, 105, 179, 181, 107, 139, 180, 140, 106
41, 107, 181, 183, 109, 140, 182, 141, 108
42, 109, 183, 185, 111, 141, 184, 142, 110
43, 111, 185, 187, 113, 142, 186, 143, 112
44, 113, 187, 189, 115, 143, 188, 144, 114
45, 115, 189, 191, 117, 144, 190, 145, 116
46, 117, 191, 193, 119, 145, 192, 146, 118
47, 119, 193, 195, 121, 146, 194, 147, 120
48, 121, 195, 197, 123, 147, 196, 148, 122
49, 149, 223, 225, 151, 198, 224, 199, 150
50, 151, 225, 227, 153, 199, 226, 200, 152
51, 153, 227, 229, 155, 200, 228, 201, 154
52, 155, 229, 231, 157, 201, 230, 202, 156
53, 157, 231, 233, 159, 202, 232, 203, 158
54, 159, 233, 235, 161, 203, 234, 204, 160
55, 161, 235, 237, 163, 204, 236, 205, 162
56, 163, 237, 239, 165, 205, 238, 206, 164
57, 165, 239, 241, 167, 206, 240, 207, 166
58, 167, 241, 243, 169, 207, 242, 208, 168
59, 169, 243, 245, 171, 208, 244, 209, 170
60, 171, 245, 247, 173, 209, 246, 210, 172
61, 173, 247, 249, 175, 210, 248, 211, 174
62, 175, 249, 251, 177, 211, 250, 212, 176
63, 177, 251, 253, 179, 212, 252, 213, 178
64, 179, 253, 255, 181, 213, 254, 214, 180
65, 181, 255, 257, 183, 214, 256, 215, 182
66, 183, 257, 259, 185, 215, 258, 216, 184
67, 185, 259, 261, 187, 216, 260, 217, 186
68, 187, 261, 263, 189, 217, 262, 218, 188
69, 189, 263, 265, 191, 218, 264, 219, 190
70, 191, 265, 267, 193, 219, 266, 220, 192
71, 193, 267, 269, 195, 220, 268, 221, 194
72, 195, 269, 271, 197, 221, 270, 222, 196
73, 223, 297, 299, 225, 272, 298, 273, 224
74, 225, 299, 301, 227, 273, 300, 274, 226
75, 227, 301, 303, 229, 274, 302, 275, 228
76, 229, 303, 305, 231, 275, 304, 276, 230
77, 231, 305, 307, 233, 276, 306, 277, 232
78, 233, 307, 309, 235, 277, 308, 278, 234
79, 235, 309, 311, 237, 278, 310, 279, 236
80, 237, 311, 313, 239, 279, 312, 280, 238
81, 239, 313, 315, 241, 280, 314, 281, 240
82, 241, 315, 317, 243, 281, 316, 282, 242
83, 243, 317, 319, 245, 282, 318, 283, 244
84, 245, 319, 321, 247, 283, 320, 284, 246
85, 247, 321, 323, 249, 284, 322, 285, 248
86, 249, 323, 325, 251, 285, 324, 286, 250
87, 251, 325, 327, 253, 286, 326, 287, 252
88, 253, 327, 329, 255, 287, 328, 288, 254
89, 255, 329, 331, 257, 288, 330, 289, 256
90, 257, 331, 333, 259, 289, 332, 290, 258
91, 259, 333, 335, 261, 290, 334, 291, 260
92, 261, 335, 337, 263, 291, 336, 292, 262
93, 263, 337, 339, 265, 292, 338, 293, 264
94, 265, 339, 341, 267, 293, 340, 294, 266
95, 267, 341, 343, 269, 294, 342, 295, 268
96, 269, 343, 345, 271, 295, 344, 296, 270
97, 297, 371, 373, 299, 346, 372, 347, 298
98, 299, 373, 375, 301, 347, 374, 348, 300
99, 301, 375, 377, 303, 348, 376, 349, 302
100, 303, 377, 379, 305, 349, 378, 350, 304
101, 305, 379, 381, 307, 350, 380, 351, 306
102, 307, 381, 383, 309, 351, 382, 352, 308
103, 309, 383, 385, 311, 352, 384, 353, 310
104, 311, 385, 387, 313, 353, 386, 354, 312
105, 313, 387, 389, 315, 354, 388, 355, 314
106, 315, 389, 391, 317, 355, 390, 356, 316
107, 317, 391, 393, 319, 356, 392, 357, 318
108, 319, 393, 395, 321, 357, 394, 358, 320
109, 321, 395, 397, 323, 358, 396, 359, 322
110, 323, 397, 399, 325, 359, 398, 360, 324
111, 325, 399, 401, 327, 360, 400, 361, 326
112, 327, 401, 403, 329, 361, 402, 362, 328
113, 329, 403, 405, 331, 362, 404, 363, 330
114, 331, 405, 407, 333, 363, 406, 364, 332
115, 333, 407, 409, 335, 364, 408, 365, 334
116, 335, 409, 411, 337, 365, 410, 366, 336
117, 337, 411, 413, 339, 366, 412, 367, 338
118, 339, 413, 415, 341, 367, 414, 368, 340
119, 341, 415, 417, 343, 368, 416, 369, 342
120, 343, 417, 419, 345, 369, 418, 370, 344
121, 371, 445, 447, 373, 420, 446, 421, 372
122, 373, 447, 449, 375, 421, 448, 422, 374
123, 375, 449, 451, 377, 422, 450, 423, 376
124, 377, 451, 453, 379, 423, 452, 424, 378
125, 379, 453, 455, 381, 424, 454, 425, 380
126, 381, 455, 457, 383, 425, 456, 426, 382
127, 383, 457, 459, 385, 426, 458, 427, 384
128, 385, 459, 461, 387, 427, 460, 428, 386
129, 387, 461, 463, 389, 428, 462, 429, 388
130, 389, 463, 465, 391, 429, 464, 430, 390
131, 391, 465, 467, 393, 430, 466, 431, 392
132, 393, 467, 469, 395, 431, 468, 432, 394
133, 395, 469, 471, 397, 432, 470, 433, 396
134, 397, 471, 473, 399, 433, 472, 434, 398
135, 399, 473, 475, 401, 434, 474, 435, 400
136, 401, 475, 477, 403, 435, 476, 436, 402
137, 403, 477, 479, 405, 436, 478, 437, 404
138, 405, 479, 481, 407, 437, 480, 438, 406
139, 407, 481, 483, 409, 438, 482, 439, 408
140, 409, 483, 485, 411, 439, 484, 440, 410
141, 411, 485, 487, 413, 440, 486, 441, 412
142, 413, 487, 489, 415, 441, 488, 442, 414
143, 415, 489, 491, 417, 442, 490, 443, 416
144, 417, 491, 493, 419, 443, 492, 444, 418
145, 445, 519, 521, 447, 494, 520, 495, 446
146, 447, 521, 523, 449, 495, 522, 496, 448
147, 449, 523, 525, 451, 496, 524, 497, 450
148, 451, 525, 527, 453, 497, 526, 498, 452
149, 453, 527, 529, 455, 498, 528, 499, 454
150, 455, 529, 531, 457, 499, 530, 500, 456
151, 457, 531, 533, 459, 500, 532, 501, 458
152, 459, 533, 535, 461, 501, 534, 502, 460
153, 461, 535, 537, 463, 502, 536, 503, 462
154, 463, 537, 539, 465, 503, 538, 504, 464
155, 465, 539, 541, 467, 504, 540, 505, 466
156, 467, 541, 543, 469, 505, 542, 506, 468
157, 469, 543, 545, 471, 506, 544, 507, 470
158, 471, 545, 547, 473, 507, 546, 508, 472
159, 473, 547, 549, 475, 508, 548, 509, 474
160, 475, 549, 551, 477, 509, 550, 510, 476
161, 477, 551, 553, 479, 510, 552, 511, 478
162, 479, 553, 555, 481, 511, 554, 512, 480
163, 481, 555, 557, 483, 512, 556, 513, 482
164, 483, 557, 559, 485, 513, 558, 514, 484
165, 485, 559, 561, 487, 514, 560, 515, 486
166, 487, 561, 563, 489, 515, 562, 516, 488
167, 489, 563, 565, 491, 516, 564, 517, 490
168, 491, 565, 567, 493, 517, 566, 518, 492
169, 519, 593, 595, 521, 568, 594, 569, 520
170, 521, 595, 597, 523, 569, 596, 570, 522
171, 523, 597, 599, 525, 570, 598, 571, 524
172, 525, 599, 601, 527, 571, 600, 572, 526
173, 527, 601, 603, 529, 572, 602, 573, 528
174, 529, 603, 605, 531, 573, 604, 574, 530
175, 531, 605, 607, 533, 574, 606, 575, 532
176, 533, 607, 609, 535, 575, 608, 576, 534
177, 535, 609, 611, 537, 576, 610, 577, 536
178, 537, 611, 613, 539, 577, 612, 578, 538
179, 539, 613, 615, 541, 578, 614, 579, 540
180, 541, 615, 617, 543, 579, 616, 580, 542
181, 543, 617, 619, 545, 580, 618, 581, 544
182, 545, 619, 621, 547, 581, 620, 582, 546
183, 547, 621, 623, 549, 582, 622, 583, 548
184, 549, 623, 625, 551, 583, 624, 584, 550
185, 551, 625, 627, 553, 584, 626, 585, 552
186, 553, 627, 629, 555, 585, 628, 586, 554
187, 555, 629, 631, 557, 586, 630, 587, 556
188, 557, 631, 633, 559, 587, 632, 588, 558
189, 559, 633, 635, 561, 588, 634, 589, 560
190, 561, 635, 637, 563, 589, 636, 590, 562
191, 563, 637, 639, 565, 590, 638, 591, 564
192, 565, 639, 641, 567, 591, 640, 592, 566
193, 593, 667, 669, 595, 642, 668, 643, 594
194, 595, 669, 671, 597, 643, 670, 644, 596
195, 597, 671, 673, 599, 644, 672, 645, 598
196, 599, 673, 675, 601, 645, 674, 646, 600
197, 601, 675, 677, 603, 646, 676, 647, 602
198, 603, 677, 679, 605, 647, 678, 648, 604
199, 605, 679, 681, 607, 648, 680, 649, 606
200, 607, 681, 683, 609, 649, 682, 650, 608
201, 609, 683, 685, 611, 650, 684, 651, 610
202, 611, 685, 687, 613, 651, 686, 652, 612
203, 613, 687, 689, 615, 652, 688, 653, 614
204, 615, 689, 691, 617, 653, 690, 654, 616
205, 617, 691, 693, 619, 654, 692, 655, 618
206, 619, 693, 695, 621, 655, 694, 656, 620
207, 621, 695, 697, 623, 656, 696, 657, 622
208, 623, 697, 699, 625, 657, 698, 658, 624
209, 625, 699, 701, 627, 658, 700, 659, 626
210, 627, 701, 703, 629, 659, 702, 660, 628
211, 629, 703, 705, 631, 660, 704, 661, 630
212, 631, 705, 707, 633, 661, 706, 662, 632
213, 633, 707, 709, 635, 662, 708, 663, 634
214, 635, 709, 711, 637, 663, 710, 664, 636
215, 637, 711, 713, 639, 664, 712, 665, 638
216, 639, 713, 715, 641, 665, 714, 666, 640
217, 667, 741, 743, 669, 716, 742, 717, 668
218, 669, 743, 745, 671, 717, 744, 718, 670
219, 671, 745, 747, 673, 718, 746, 719, 672
220, 673, 747, 749, 675, 719, 748, 720, 674
221, 675, 749, 751, 677, 720, 750, 721, 676
222, 677, 751, 753, 679, 721, 752, 722, 678
223, 679, 753, 755, 681, 722, 754, 723, 680
224, 681, 755, 757, 683, 723, 756, 724, 682
225, 683, 757, 759, 685, 724, 758, 725, 684
226, 685, 759, 761, 687, 725, 760, 726, 686
227, 687, 761, 763, 689, 726, 762, 727, 688
228, 689, 763, 765, 691, 727, 764, 728, 690
229, 691, 765, 767, 693, 728, 766, 729, 692
230, 693, 767, 769, 695, 729, 768, 730, 694
231, 695, 769, 771, 697, 730, 770, 731, 696
232, 697, 771, 773, 699, 731, 772, 732, 698
233, 699, 773, 775, 701, 732, 774, 733, 700
234, 701, 775, 777, 703, 733, 776, 734, 702
235, 703, 777, 779, 705, 734, 778, 735, 704
236, 705, 779, 781, 707, 735, 780, 736, 706
237, 707, 781, 783, 709, 736, 782, 737, 708
238, 709, 783, 785, 711, 737, 784, 738, 710
239, 711, 785, 787, 713, 738, 786, 739, 712
240, 713, 787, 789, 715, 739, 788, 740, 714
241, 741, 815, 817, 743, 790, 816, 791, 742
242, 743, 817, 819, 745, 791, 818, 792, 744
243, 745, 819, 821, 747, 792, 820, 793, 746
244, 747, 821, 823, 749, 793, 822, 794, 748
245, 749, 823, 825, 751, 794, 824, 795, 750
246, 751, 825, 827, 753, 795, 826, 796, 752
247, 753, 827, 829, 755, 796, 828, 797, 754
248, 755, 829, 831, 757, 797, 830, 798, 756
249, 757, 831, 833, 759, 798, 832, 799, 758
250, 759, 833, 835, 761, 799, 834, 800, 760
251, 761, 835, 837, 763, 800, 836, 801, 762
252, 763, 837, 839, 765, 801, 838, 802, 764
253, 765, 839, 841, 767, 802, 840, 803, 766
254, 767, 841, 843, 769, 803, 842, 804, 768
255, 769, 843, 845, 771, 804, 844, 805, 770
256, 771, 845, 847, 773, 805, 846, 806, 772
257, 773, 847, 849, 775, 806, 848, 807, 774
258, 775, 849, 851, 777, 807, 850, 808, 776
259, 777, 851, 853, 779, 808, 852, 809, 778
260, 779, 853, 855, 781, 809, 854, 810, 780
261, 781, 855, 857, 783, 810, 856, 811, 782
262, 783, 857, 859, 785, 811, 858, 812, 784
263, 785, 859, 861, 787, 812, 860, 813, 786
264, 787, 861, 863, 789, 813, 862, 814, 788
265, 815, 889, 891, 817, 864, 890, 865, 816
266, 817, 891, 893, 819, 865, 892, 866, 818
267, 819, 893, 895, 821, 866, 894, 867, 820
268, 821, 895, 897, 823, 867, 896, 868, 822
269, 823, 897, 899, 825, 868, 898, 869, 824
270, 825, 899, 901, 827, 869, 900, 870, 826
271, 827, 901, 903, 829, 870, 902, 871, 828
272, 829, 903, 905, 831, 871, 904, 872, 830
273, 831, 905, 907, 833, 872, 906, 873, 832
274, 833, 907, 909, 835, 873, 908, 874, 834
275, 835, 909, 911, 837, 874, 910, 875, 836
276, 837, 911, 913, 839, 875, 912, 876, 838
277, 839, 913, 915, 841, 876, 914, 877, 840
278, 841, 915, 917, 843, 877, 916, 878, 842
279, 843, 917, 919, 845, 878, 918, 879, 844
280, 845, 919, 921, 847, 879, 920, 880, 846
281, 847, 921, 923, 849, 880, 922, 881, 848
282, 849, 923, 925, 851, 881, 924, 882, 850
283, 851, 925, 927, 853, 882, 926, 883, 852
284, 853, 927, 929, 855, 883, 928, 884, 854
285, 855, 929, 931, 857, 884, 930, 885, 856
286, 857, 931, 933, 859, 885, 932, 886, 858
287, 859, 933, 935, 861, 886, 934, 887, 860
288, 861, 935, 937, 863, 887, 936, 888, 862
289, 889, 963, 965, 891, 938, 964, 939, 890
290, 891, 965, 967, 893, 939, 966, 940, 892
291, 893, 967, 969, 895, 940, 968, 941, 894
292, 895, 969, 971, 897, 941, 970, 942, 896
293, 897, 971, 973, 899, 942, 972, 943, 898
294, 899, 973, 975, 901, 943, 974, 944, 900
295, 901, 975, 977, 903, 944, 976, 945, 902
296, 903, 977, 979, 905, 945, 978, 946, 904
297, 905, 979, 981, 907, 946, 980, 947, 906
298, 907, 981, 983, 909, 947, 982, 948, 908
299, 909, 983, 985, 911, 948, 984, 949, 910
300, 911, 985, 987, 913, 949, 986, 950, 912
301, 913, 987, 989, 915, 950, 988, 951, 914
302, 915, 989, 991, 917, 951, 990, 952, 916
303, 917, 991, 993, 919, 952, 992, 953, 918
304, 919, 993, 995, 921, 953, 994, 954, 920
305, 921, 995, 997, 923, 954, 996, 955, 922
306, 923, 997, 999, 925, 955, 998, 956, 924
307, 925, 999, 1001, 927, 956, 1000, 957, 926
308, 927, 1001, 1003, 929, 957, 1002, 958, 928
309, 929, 1003, 1005, 931, 958, 1004, 959, 930
310, 931, 1005, 1007, 933, 959, 1006, 960, 932
311, 933, 1007, 1009, 935, 960, 1008, 961, 934
312, 935, 1009, 1011, 937, 961, 1010, 962, 936
313, 963, 1037, 1039, 965, 1012, 1038, 1013, 964
314, 965, 1039, 1041, 967, 1013, 1040, 1014, 966
315, 967, 1041, 1043, 969, 1014, 1042, 1015, 968
316, 969, 1043, 1045, 971, 1015, 1044, 1016, 970
317, 971, 1045, 1047, 973, 1016, 1046, 1017, 972
318, 973, 1047, 1049, 975, 1017, 1048, 1018, 974
319, 975, 1049, 1051, 977, 1018, 1050, 1019, 976
320, 977, 1051, 1053, 979, 1019, 1052, 1020, 978
321, 979, 1053, 1055, 981, 1020, 1054, 1021, 980
322, 981, 1055, 1057, 983, 1021, 1056, 1022, 982
323, 983, 1057, 1059, 985, 1022, 1058, 1023, 984
324, 985, 1059, 1061, 987, 1023, 1060, 1024, 986
325, 987, 1061, 1063, 989, 1024, 1062, 1025, 988
326, 989, 1063, 1065, 991, 1025, 1064, 1026, 990
327, 991, 1065, 1067, 993, 1026, 1066, 1027, 992
328, 993, 1067, 1069, 995, 1027, 1068, 1028, 994
329, 995, 1069, 1071, 997, 1028, 1070, 1029, 996
330, 997, 1071, 1073, 999, 1029, 1072, 1030, 998
331, 999, 1073, 1075, 1001, 1030, 1074, 1031, 1000
332, 1001, 1075, 1077, 1003, 1031, 1076, 1032, 1002
333, 1003, 1077, 1079, 1005, 1032, 1078, 1033, 1004
334, 1005, 1079, 1081, 1007, 1033, 1080, 1034, 1006
335, 1007, 1081, 1083, 1009, 1034, 1082, 1035, 1008
336, 1009, 1083, 1085, 1011, 1035, 1084, 1036, 1010
337, 1037, 1111, 1113, 1039, 1086, 1112, 1087, 1038
338, 1039, 1113, 1115, 1041, 1087, 1114, 1088, 1040
339, 1041, 1115, 1117, 1043, 1088, 1116, 1089, 1042
340, 1043, 1117, 1119, 1045, 1089, 1118, 1090, 1044
341, 1045, 1119, 1121, 1047, 1090, 1120, 1091, 1046
342, 1047, 1121, 1123, 1049, 1091, 1122, 1092, 1048
343, 1049, 1123, 1125, 1051, 1092, 1124, 1093, 1050
344, 1051, 1125, 1127, 1053, 1093, 1126, 1094, 1052
345, 1053, 1127, 1129, 1055, 1094, 1128, 1095, 1054
346, 1055, 1129, 1131, 1057, 1095, 1130, 1096, 1056
347, 1057, 1131, 1133, 1059, 1096, 1132, 1097, 1058
348, 1059, 1133, 1135, 1061, 1097, 1134, 1098, 1060
349, 1061, 1135, 1137, 1063, 1098, 1136, 1099, 1062
350, 1063, 1137, 1139, 1065, 1099, 1138, 1100, 1064
351, 1065, 1139, 1141, 1067, 1100, 1140, 1101, 1066
352, 1067, 1141, 1143, 1069, 1101, 1142, 1102, 1068
353, 1069, 1143, 1145, 1071, 1102, 1144, 1103, 1070
354, 1071, 1145, 1147, 1073, 1103, 1146, 1104, 1072
355, 1073, 1147, 1149, 1075, 1104, 1148, 1105, 1074
356, 1075, 1149, 1151, 1077, 1105, 1150, 1106, 1076
357, 1077, 1151, 1153, 1079, 1106, 1152, 1107, 1078
358, 1079, 1153, 1155, 1081, 1107, 1154, 1108, 1080
359, 1081, 1155, 1157, 1083, 1108, 1156, 1109, 1082
360, 1083, 1157, 1159, 1085, 1109, 1158, 1110, 1084
361, 1111, 1185, 1187, 1113, 1160, 1186, 1161, 1112
362, 1113, 1187, 1189, 1115, 1161, 1188, 1162, 1114
363, 1115, 1189, 1191, 1117, 1162, 1190, 1163, 1116
364, 1117, 1191, 1193, 1119, 1163, 1192, 1164, 1118
365, 1119, 1193, 1195, 1121, 1164, 1194, 1165, 1120
366, 1121, 1195, 1197, 1123, 1165, 1196, 1166, 1122
367, 1123, 1197, 1199, 1125, 1166, 1198, 1167, 1124
368, 1125, 1199, 1201, 1127, 1167, 1200, 1168, 1126
369, 1127, 1201, 1203, 1129, 1168, 1202, 1169, 1128
370, 1129, 1203, 1205, 1131, 1169, 1204, 1170, 1130
371, 1131, 1205, 1207, 1133, 1170, 1206, 1171, 1132
372, 1133, 1207, 1209, 1135, 1171, 1208, 1172, 1134
373, 1135, 1209, 1211, 1137, 1172, 1210, 1173, 1136
374, 1137, 1211, 1213, 1139, 1173, 1212, 1174, 1138
375, 1139, 1213, 1215, 1141, 1174, 1214, 1175, 1140
376, 1141, 1215, 1217, 1143, 1175, 1216, 1176, 1142
377, 1143, 1217, 1219, 1145, 1176, 1218, 1177, 1144
378, 1145, 1219, 1221, 1147, 1177, 1220, 1178, 1146
379, 1147, 1221, 1223, 1149, 1178, 1222, 1179, 1148
380, 1149, 1223, 1225, 1151, 1179, 1224, 1180, 1150
381, 1151, 1225, 1227, 1153, 1180, 1226, 1181, 1152
382, 1153, 1227, 1229, 1155, 1181, 1228, 1182, 1154
383, 1155, 1229, 1231, 1157, 1182, 1230, 1183, 1156
384, 1157, 1231, 1233, 1159, 1183, 1232, 1184, 1158
385, 1185, 1259, 1261, 1187, 1234, 1260, 1235, 1186
386, 1187, 1261, 1263, 1189, 1235, 1262, 1236, 1188
387, 1189, 1263, 1265, 1191, 1236, 1264, 1237, 1190
388, 1191, 1265, 1267, 1193, 1237, 1266, 1238, 1192
389, 1193, 1267, 1269, 1195, 1238, 1268, 1239, 1194
390, 1195, 1269, 1271, 1197, 1239, 1270, 1240, 1196
391, 1197, 1271, 1273, 1199, 1240, 1272, 1241, 1198
392, 1199, 1273, 1275, 1201, 1241, 1274, 1242, 1200
393, 1201, 1275, 1277, 1203, 1242, 1276, 1243, 1202
394, 1203, 1277, 1279, 1205, 1243, 1278, 1244, 1204
395, 1205, 1279, 1281, 1207, 1244, 1280, 1245, 1206
396, 1207, 1281, 1283, 1209, 1245, 1282, 1246, 1208
397, 1209, 1283, 1285, 1211, 1246, 1284, 1247, 1210
398, 1211, 1285, 1287, 1213, 1247, 1286, 1248, 1212
399, 1213, 1287, 1289, 1215, 1248, 1288, 1249, 1214
400, 1215, 1289, 1291, 1217, 1249, 1290, 1250, 1216
401, 1217, 1291, 1293, 1219, 1250, 1292, 1251, 1218
402, 1219, 1293, 1295, 1221, 1251, 1294, 1252, 1220
403, 1221, 1295, 1297, 1223, 1252, 1296, 1253, 1222
404, 1223, 1297, 1299, 1225, 1253, 1298, 1254, 1224
405, 1225, 1299, 1301, 1227, 1254, 1300, 1255, 1226
406, 1227, 1301, 1303, 1229, 1255, 1302, 1256, 1228
407, 1229, 1303, 1305, 1231, 1256, 1304, 1257, 1230
408, 1231, 1305, 1307, 1233, 1257, 1306, 1258, 1232
409, 1259, 1333, 1335, 1261, 1308, 1334, 1309, 1260
410, 1261, 1335, 1337, 1263, 1309, 1336, 1310, 1262
411, 1263, 1337, 1339, 1265, 1310, 1338, 1311, 1264
412, 1265, 1339, 1341, 1267, 1311, 1340, 1312, 1266
413, 1267, 1341, 1343, 1269, 1312, 1342, 1313, 1268
414, 1269, 1343, 1345, 1271, 1313, 1344, 1314, 1270
415, 1271, 1345, 1347, 1273, 1314, 1346, 1315, 1272
416, 1273, 1347, 1349, 1275, 1315, 1348, 1316, 1274
417, 1275, 1349, 1351, 1277, 1316, 1350, 1317, 1276
418, 1277, 1351, 1353, 1279, 1317, 1352, 1318, 1278
419, 1279, 1353, 1355, 1281, 1318, 1354, 1319, 1280
420, 1281, 1355, 1357, 1283, 1319, 1356, 1320, 1282
421, 1283, 1357, 1359, 1285, 1320, 1358, 1321, 1284
422, 1285, 1359, 1361, 1287, 1321, 1360, 1322, 1286
423, 1287, 1361, 1363, 1289, 1322, 1362, 1323, 1288
424, 1289, 1363, 1365, 1291, 1323, 1364, 1324, 1290
425, 1291, 1365, 1367, 1293, 1324, 1366, 1325, 1292
426, 1293, 1367, 1369, 1295, 1325, 1368, 1326, 1294
427, 1295, 1369, 1371, 1297, 1326, 1370, 1327, 1296
428, 1297, 1371, 1373, 1299, 1327, 1372, 1328, 1298
429, 1299, 1373, 1375, 1301, 1328, 1374, 1329, 1300
430, 1301, 1375, 1377, 1303, 1329, 1376, 1330, 1302
431, 1303, 1377, 1379, 1305, 1330, 1378, 1331, 1304
432, 1305, 1379, 1381, 1307, 1331, 1380, 1332, 1306
433, 1333, 1407, 1409, 1335, 1382, 1408, 1383, 1334
434, 1335, 1409, 1411, 1337, 1383, 1410, 1384, 1336
435, 1337, 1411, 1413, 1339, 1384, 1412, 1385, 1338
436, 1339, 1413, 1415, 1341, 1385, 1414, 1386, 1340
437, 1341, 1415, 1417, 1343, 1386, 1416, 1387, 1342
438, 1343, 1417, 1419, 1345, 1387, 1418, 1388, 1344
439, 1345, 1419, 1421, 1347, 1388, 1420, 1389, 1346
440, 1347, 1421, 1423, 1349, 1389, 1422, 1390, 1348
441, 1349, 1423, 1425, 1351, 1390, 1424, 1391, 1350
442, 1351, 1425, 1427, 1353, 1391, 1426, 1392, 1352
443, 1353, 1427, 1429, 1355, 1392, 1428, 1393, 1354
444, 1355, 1429, 1431, 1357, 1393, 1430, 1394, 1356
445, 1357, 1431, 1433, 1359, 1394, 1432, 1395, 1358
446, 1359, 1433, 1435, 1361, 1395, 1434, 1396, 1360
447, 1361, 1435, 1437, 1363, 1396, 1436, 1397, 1362
448, 1363, 1437, 1439, 1365, 1397, 1438, 1398, 1364
449, 1365, 1439, 1441, 1367, 1398, 1440, 1399, 1366
450, 1367, 1441, 1443, 1369, 1399, 1442, 1400, 1368
451, 1369, 1443, 1445, 1371, 1400, 1444, 1401, 1370
452, 1371, 1445, 1447, 1373, 1401, 1446, 1402, 1372
453, 1373, 1447, 1449, 1375, 1402, 1448, 1403, 1374
454, 1375, 1449, 1451, 1377, 1403, 1450, 1404, 1376
455, 1377, 1451, 1453, 1379, 1404, 1452, 1405, 1378
456, 1379, 1453, 1455, 1381, 1405, 1454, 1406, 1380
457, 1407, 1481, 1483, 1409, 1456, 1482, 1457, 1408
458, 1409, 1483, 1485, 1411, 1457, 1484, 1458, 1410
459, 1411, 1485, 1487, 1413, 1458, 1486, 1459, 1412
460, 1413, 1487, 1489, 1415, 1459, 1488, 1460, 1414
461, 1415, 1489, 1491, 1417, 1460, 1490, 1461, 1416
462, 1417, 1491, 1493, 1419, 1461, 1492, 1462, 1418
463, 1419, 1493, 1495, 1421, 1462, 1494, 1463, 1420
464, 1421, 1495, 1497, 1423, 1463, 1496, 1464, 1422
465, 1423, 1497, 1499, 1425, 1464, 1498, 1465, 1424
466, 1425, 1499, 1501, 1427, 1465, 1500, 1466, 1426
467, 1427, 1501, 1503, 1429, 1466, 1502, 1467, 1428
468, 1429, 1503, 1505, 1431, 1467, 1504, 1468, 1430
469, 1431, 1505, 1507, 1433, 1468, 1506, 1469, 1432
470, 1433, 1507, 1509, 1435, 1469, 1508, 1470, 1434
471, 1435, 1509, 1511, 1437, 1470, 1510, 1471, 1436
472, 1437, 1511, 1513, 1439, 1471, 1512, 1472, 1438
473, 1439, 1513, 1515, 1441, 1472, 1514, 1473, 1440
474, 1441, 1515, 1517, 1443, 1473, 1516, 1474, 1442
475, 1443, 1517, 1519, 1445, 1474, 1518, 1475, 1444
476, 1445, 1519, 1521, 1447, 1475, 1520, 1476, 1446
477, 1447, 1521, 1523, 1449, 1476, 1522, 1477, 1448
478, 1449, 1523, 1525, 1451, 1477, 1524, 1478, 1450
479, 1451, 1525, 1527, 1453, 1478, 1526, 1479, 1452
480, 1453, 1527, 1529, 1455, 1479, 1528, 1480, 1454
481, 1481, 1555, 1557, 1483, 1530, 1556, 1531, 1482
482, 1483, 1557, 1559, 1485, 1531, 1558, 1532, 1484
483, 1485, 1559, 1561, 1487, 1532, 1560, 1533, 1486
484, 1487, 1561, 1563, 1489, 1533, 1562, 1534, 1488
485, 1489, 1563, 1565, 1491, 1534, 1564, 1535, 1490
486, 1491, 1565, 1567, 1493, 1535, 1566, 1536, 1492
487, 1493, 1567, 1569, 1495, 1536, 1568, 1537, 1494
488, 1495, 1569, 1571, 1497, 1537, 1570, 1538, 1496
489, 1497, 1571, 1573, 1499, 1538, 1572, 1539, 1498
490, 1499, 1573, 1575, 1501, 1539, 1574, 1540, 1500
491, 1501, 1575, 1577, 1503, 1540, 1576, 1541, 1502
492, 1503, 1577, 1579, 1505, 1541, 1578, 1542, 1504
493, 1505, 1579, 1581, 1507, 1542, 1580, 1543, 1506
494, 1507, 1581, 1583, 1509, 1543, 1582, 1544, 1508
495, 1509, 1583, 1585, 1511, 1544, 1584, 1545, 1510
496, 1511, 1585, 1587, 1513, 1545, 1586, 1546, 1512
497, 1513, 1587, 1589, 1515, 1546, 1588, 1547, 1514
498, 1515, 1589, 1591, 1517, 1547, 1590, 1548, 1516
499, 1517, 1591, 1593, 1519, 1548, 1592, 1549, 1518
500, 1519, 1593, 1595, 1521, 1549, 1594, 1550, 1520
501, 1521, 1595, 1597, 1523, 1550, 1596, 1551, 1522
502, 1523, 1597, 1599, 1525, 1551, 1598, 1552, 1524
503, 1525, 1599, 1601, 1527, 1552, 1600, 1553, 1526
504, 1527, 1601, 1603, 1529, 1553, 1602, 1554, 1528
505, 1555, 1629, 1631, 1557, 1604, 1630, 1605, 1556
506, 1557, 1631, 1633, 1559, 1605, 1632, 1606, 1558
507, 1559, 1633, 1635, 1561, 1606, 1634, 1607, 1560
508, 1561, 1635, 1637, 1563, 1607, 1636, 1608, 1562
509, 1563, 1637, 1639, 1565, 1608, 1638, 1609, 1564
510, 1565, 1639, 1641, 1567, 1609, 1640, 1610, 1566
511, 1567, 1641, 1643, 1569, 1610, 1642, 1611, 1568
512, 1569, 1643, 1645, 1571, 1611, 1644, 1612, 1570
513, 1571, 1645, 1647, 1573, 1612, 1646, 1613, 1572
514, 1573, 1647, 1649, 1575, 1613, 1648, 1614, 1574
515, 1575, 1649, 1651, 1577, 1614, 1650, 1615, 1576
516, 1577, 1651, 1653, 1579, 1615, 1652, 1616, 1578
517, 1579, 1653, 1655, 1581, 1616, 1654, 1617, 1580
518, 1581, 1655, 1657, 1583, 1617, 1656, 1618, 1582
519, 1583, 1657, 1659, 1585, 1618, 1658, 1619, 1584
520, 1585, 1659, 1661, 1587, 1619, 1660, 1620, 1586
521, 1587, 1661, 1663, 1589, 1620, 1662, 1621, 1588
522, 1589, 1663, 1665, 1591, 1621, 1664, 1622, 1590
523, 1591, 1665, 1667, 1593, 1622, 1666, 1623, 1592
524, 1593, 1667, 1669, 1595, 1623, 1668, 1624, 1594
525, 1595, 1669, 1671, 1597, 1624, 1670, 1625, 1596
526, 1597, 1671, 1673, 1599, 1625, 1672, 1626, 1598
527, 1599, 1673, 1675, 1601, 1626, 1674, 1627, 1600
528, 1601, 1675, 1677, 1603, 1627, 1676, 1628, 1602
529, 1629, 1703, 1705, 1631, 1678, 1704, 1679, 1630
530, 1631, 1705, 1707, 1633, 1679, 1706, 1680, 1632
531, 1633, 1707, 1709, 1635, 1680, 1708, 1681, 1634
532, 1635, 1709, 1711, 1637, 1681, 1710, 1682, 1636
533, 1637, 1711, 1713, 1639, 1682, 1712, 1683, 1638
534, 1639, 1713, 1715, 1641, 1683, 1714, 1684, 1640
535, 1641, 1715, 1717, 1643, 1684, 1716, 1685, 1642
536, 1643, 1717, 1719, 1645, 1685, 1718, 1686, 1644
537, 1645, 1719, 1721, 1647, 1686, 1720, 1687, 1646
538, 1647, 1721, 1723, 1649, 1687, 1722, 1688, 1648
539, 1649, 1723, 1725, 1651, 1688, 1724, 1689, 1650
540, 1651, 1725, 1727, 1653, 1689, 1726, 1690, 1652
541, 1653, 1727, 1729, 1655, 1690, 1728, 1691, 1654
542, 1655, 1729, 1731, 1657, 1691, 1730, 1692, 1656
543, 1657, 1731, 1733, 1659, 1692, 1732, 1693, 1658
544, 1659, 1733, 1735, 1661, 1693, 1734, 1694, 1660
545, 1661, 1735, 1737, 1663, 1694, 1736, 1695, 1662
546, 1663, 1737, 1739, 1665, 1695, 1738, 1696, 1664
547, 1665, 1739, 1741, 1667, 1696, 1740, 1697, 1666
548, 1667, 1741, 1743, 1669, 1697, 1742, 1698, 1668
549, 1669, 1743, 1745, 1671, 1698, 1744, 1699, 1670
550, 1671, 1745, 1747, 1673, 1699, 1746, 1700, 1672
551, 1673, 1747, 1749, 1675, 1700, 1748, 1701, 1674
552, 1675, 1749, 1751, 1677, 1701, 1750, 1702, 1676
553, 1703, 1777, 1779, 1705, 1752, 1778, 1753, 1704
554, 1705, 1779, 1781, 1707, 1753, 1780, 1754, 1706
555, 1707, 1781, 1783, 1709, 1754, 1782, 1755, 1708
556, 1709, 1783, 1785, 1711, 1755, 1784, 1756, 1710
557, 1711, 1785, 1787, 1713, 1756, 1786, 1757, 1712
558, 1713, 1787, 1789, 1715, 1757, 1788, 1758, 1714
559, 1715, 1789, 1791, 1717, 1758, 1790, 1759, 1716
560, 1717, 1791, 1793, 1719, 1759, 1792, 1760, 1718
561, 1719, 1793, 1795, 1721, 1760, 1794, 1761, 1720
562, 1721, 1795, 1797, 1723, 1761, 1796, 1762, 1722
563, 1723, 1797, 1799, 1725, 1762, 1798, 1763, 1724
564, 1725, 1799, 1801, 1727, 1763, 1800, 1764, 1726
565, 1727, 1801, 1803, 1729, 1764, 1802, 1765, 1728
566, 1729, 1803, 1805, 1731, 1765, 1804, 1766, 1730
567, 1731, 1805, 1807, 1733, 1766, 1806, 1767, 1732
568, 1733, 1807, 1809, 1735, 1767, 1808, 1768, 1734
569, 1735, 1809, 1811, 1737, 1768, 1810, 1769, 1736
570, 1737, 1811, 1813, 1739, 1769, 1812, 1770, 1738
571, 1739, 1813, 1815, 1741, 1770, 1814, 1771, 1740
572, 1741, 1815, 1817, 1743, 1771, 1816, 1772, 1742
573, 1743, 1817, 1819, 1745, 1772, 1818, 1773, 1744
574, 1745, 1819, 1821, 1747, 1773, 1820, 1774, 1746
575, 1747, 1821, 1823, 1749, 1774, 1822, 1775, 1748
576, 1749, 1823, 1825, 1751, 1775, 1824, 1776, 1750
*NSET, NSET=E
913
*NSET, NSET=EDGE
1, 49, 50, 74, 75, 123, 124, 148, 149, 197, 198, 222
223, 271, 272, 296, 297, 345, 346, 370, 371, 419, 420, 444
445, 493, 494, 518, 519, 567, 568, 592, 593, 641, 642, 666
667, 715, 716, 740, 741, 789, 790, 814, 815, 863, 864, 888
889, 937, 938, 962, 963, 1011, 1012, 1036, 1037, 1085, 1086, 1110
1111, 1159, 1160, 1184, 1185, 1233, 1234, 1258, 1259, 1307, 1308, 1332
1333, 1381, 1382, 1406, 1407, 1455, 1456, 1480, 1481, 1529, 1530, 1554
1555, 1603, 1604, 1628, 1629, 1677, 1678, 1702, 1703, 1751, 1752, 1776
1777, 1825, 2, 1778, 3, 1779, 4, 1780, 5, 1781, 6, 1782
7, 1783, 8, 1784, 9, 1785, 10, 1786, 11, 1787, 12, 1788
13, 1789, 14, 1790, 15, 1791, 16, 1792, 17, 1793, 18, 1794
19, 1795, 20, 1796, 21, 1797, 22, 1798, 23, 1799, 24, 1800
25, 1801, 26, 1802, 27, 1803, 28, 1804, 29, 1805, 30, 1806
31, 1807, 32, 1808, 33, 1809, 34, 1810, 35, 1811, 36, 1812
37, 1813, 38, 1814, 39, 1815, 40, 1816, 41, 1817, 42, 1818
43, 1819, 44, 1820, 45, 1821, 46, 1822, 47, 1823, 48, 1824
*NSET, NSET=A
1
*NSET, NSET=B
1777
*MATERIAL, NAME=STEEL
*ELASTIC
2.1e11, 0.3
*SHELL SECTION, ELSET=PLATE, MATERIAL=STEEL
0.01
*BOUNDARY
EDGE, 3, 3
A, 1, 2
B, 2, 2
*STEP
*STATIC
*DLOAD
PLATE, P, -700
*NODE FILE
U
*EL FILE
S
*END STEP
