*HEADING
NAFEMS thermal plate (T4 / Cameron, Casey & Simpson)
Target: T(0.6 m, 0.2 m) = 18.3 C
** mesh C3D8 24 x 40 x 1, thickness 0.02 m, probe nodes [1985, 1986]
*NODE
1, 0, 0, 0
2, 0, 0, 0.02
3, 0, 0.025, 0
4, 0, 0.025, 0.02
5, 0, 0.05, 0
6, 0, 0.05, 0.02
7, 0, 0.075, 0
8, 0, 0.075, 0.02
9, 0, 0.1, 0
10, 0, 0.1, 0.02
11, 0, 0.125, 0
12, 0, 0.125, 0.02
13, 0, 0.15, 0
14, 0, 0.15, 0.02
15, 0, 0.175, 0
16, 0, 0.175, 0.02
17, 0, 0.2, 0
18, 0, 0.2, 0.02
19, 0, 0.225, 0
20, 0, 0.225, 0.02
21, 0, 0.25, 0
22, 0, 0.25, 0.02
23, 0, 0.275, 0
24, 0, 0.275, 0.02
25, 0, 0.3, 0
26, 0, 0.3, 0.02
27, 0, 0.325, 0
28, 0, 0.325, 0.02
29, 0, 0.35, 0
30, 0, 0.35, 0.02
31, 0, 0.375, 0
32, 0, 0.375, 0.02
33, 0, 0.4, 0
34, 0, 0.4, 0.02
35, 0, 0.425, 0
36, 0, 0.425, 0.02
37, 0, 0.45, 0
38, 0, 0.45, 0.02
39, 0, 0.475, 0
40, 0, 0.475, 0.02
41, 0, 0.5, 0
42, 0, 0.5, 0.02
43, 0, 0.525, 0
44, 0, 0.525, 0.02
45, 0, 0.55, 0
46, 0, 0.55, 0.02
47, 0, 0.575, 0
48, 0, 0.575, 0.02
49, 0, 0.6, 0
50, 0, 0.6, 0.02
51, 0, 0.625, 0
52, 0, 0.625, 0.02
53, 0, 0.65, 0
54, 0, 0.65, 0.02
55, 0, 0.675, 0
56, 0, 0.675, 0.02
57, 0, 0.7, 0
58, 0, 0.7, 0.02
59, 0, 0.725, 0
60, 0, 0.725, 0.02
61, 0, 0.75, 0
62, 0, 0.75, 0.02
63, 0, 0.775, 0
64, 0, 0.775, 0.02
65, 0, 0.8, 0
66, 0, 0.8, 0.02
67, 0, 0.825, 0
68, 0, 0.825, 0.02
69, 0, 0.85, 0
70, 0, 0.85, 0.02
71, 0, 0.875, 0
72, 0, 0.875, 0.02
73, 0, 0.9, 0
74, 0, 0.9, 0.02
75, 0, 0.925, 0
76, 0, 0.925, 0.02
77, 0, 0.95, 0
78, 0, 0.95, 0.02
79, 0, 0.975, 0
80, 0, 0.975, 0.02
81, 0, 1, 0
82, 0, 1, 0.02
83, 0.025, 0, 0
84, 0.025, 0, 0.02
85, 0.025, 0.025, 0
86, 0.025, 0.025, 0.02
87, 0.025, 0.05, 0
88, 0.025, 0.05, 0.02
89, 0.025, 0.075, 0
90, 0.025, 0.075, 0.02
91, 0.025, 0.1, 0
92, 0.025, 0.1, 0.02
93, 0.025, 0.125, 0
94, 0.025, 0.125, 0.02
95, 0.025, 0.15, 0
96, 0.025, 0.15, 0.02
97, 0.025, 0.175, 0
98, 0.025, 0.175, 0.02
99, 0.025, 0.2, 0
100, 0.025, 0.2, 0.02
101, 0.025, 0.225, 0
102, 0.025, 0.225, 0.02
103, 0.025, 0.25, 0
104, 0.025, 0.25, 0.02
105, 0.025, 0.275, 0
106, 0.025, 0.275, 0.02
107, 0.025, 0.3, 0
108, 0.025, 0.3, 0.02
109, 0.025, 0.325, 0
110, 0.025, 0.325, 0.02
111, 0.025, 0.35, 0
112, 0.025, 0.35, 0.02
113, 0.025, 0.375, 0
114, 0.025, 0.375, 0.02
115, 0.025, 0.4, 0
116, 0.025, 0.4, 0.02
117, 0.025, 0.425, 0
118, 0.025, 0.425, 0.02
119, 0.025, 0.45, 0
120, 0.025, 0.45, 0.02
121, 0.025, 0.475, 0
122, 0.025, 0.475, 0.02
123, 0.025, 0.5, 0
124, 0.025, 0.5, 0.02
125, 0.025, 0.525, 0
126, 0.025, 0.525, 0.02
127, 0.025, 0.55, 0
128, 0.025, 0.55, 0.02
129, 0.025, 0.575, 0
130, 0.025, 0.575, 0.02
131, 0.025, 0.6, 0
132, 0.025, 0.6, 0.02
133, 0.025, 0.625, 0
134, 0.025, 0.625, 0.02
135, 0.025, 0.65, 0
136, 0.025, 0.65, 0.02
137, 0.025, 0.675, 0
138, 0.025, 0.675, 0.02
139, 0.025, 0.7, 0
140, 0.025, 0.7, 0.02
141, 0.025, 0.725, 0
142, 0.025, 0.725, 0.02
143, 0.025, 0.75, 0
144, 0.025, 0.75, 0.02
145, 0.025, 0.775, 0
146, 0.025, 0.775, 0.02
147, 0.025, 0.8, 0
148, 0.025, 0.8, 0.02
149, 0.025, 0.825, 0
150, 0.025, 0.825, 0.02
151, 0.025, 0.85, 0
152, 0.025, 0.85, 0.02
153, 0.025, 0.875, 0
154, 0.025, 0.875, 0.02
155, 0.025, 0.9, 0
156, 0.025, 0.9, 0.02
157, 0.025, 0.925, 0
158, 0.025, 0.925, 0.02
159, 0.025, 0.95, 0
160, 0.025, 0.95, 0.02
161, 0.025, 0.975, 0
162, 0.025, 0.975, 0.02
163, 0.025, 1, 0
164, 0.025, 1, 0.02
165, 0.05, 0, 0
166, 0.05, 0, 0.02
167, 0.05, 0.025, 0
168, 0.05, 0.025, 0.02
169, 0.05, 0.05, 0
170, 0.05, 0.05, 0.02
171, 0.05, 0.075, 0
172, 0.05, 0.075, 0.02
173, 0.05, 0.1, 0
174, 0.05, 0.1, 0.02
175, 0.05, 0.125, 0
176, 0.05, 0.125, 0.02
177, 0.05, 0.15, 0
178, 0.05, 0.15, 0.02
179, 0.05, 0.175, 0
180, 0.05, 0.175, 0.02
181, 0.05, 0.2, 0
182, 0.05, 0.2, 0.02
183, 0.05, 0.225, 0
184, 0.05, 0.225, 0.02
185, 0.05, 0.25, 0
186, 0.05, 0.25, 0.02
187, 0.05, 0.275, 0
188, 0.05, 0.275, 0.02
189, 0.05, 0.3, 0
190, 0.05, 0.3, 0.02
191, 0.05, 0.325, 0
192, 0.05, 0.325, 0.02
193, 0.05, 0.35, 0
194, 0.05, 0.35, 0.02
195, 0.05, 0.375, 0
196, 0.05, 0.375, 0.02
197, 0.05, 0.4, 0
198, 0.05, 0.4, 0.02
199, 0.05, 0.425, 0
200, 0.05, 0.425, 0.02
201, 0.05, 0.45, 0
202, 0.05, 0.45, 0.02
203, 0.05, 0.475, 0
204, 0.05, 0.475, 0.02
205, 0.05, 0.5, 0
206, 0.05, 0.5, 0.02
207, 0.05, 0.525, 0
208, 0.05, 0.525, 0.02
209, 0.05, 0.55, 0
210, 0.05, 0.55, 0.02
211, 0.05, 0.575, 0
212, 0.05, 0.575, 0.02
213, 0.05, 0.6, 0
214, 0.05, 0.6, 0.02
215, 0.05, 0.625, 0
216, 0.05, 0.625, 0.02
217, 0.05, 0.65, 0
218, 0.05, 0.65, 0.02
219, 0.05, 0.675, 0
220, 0.05, 0.675, 0.02
221, 0.05, 0.7, 0
222, 0.05, 0.7, 0.02
223, 0.05, 0.725, 0
224, 0.05, 0.725, 0.02
225, 0.05, 0.75, 0
226, 0.05, 0.75, 0.02
227, 0.05, 0.775, 0
228, 0.05, 0.775, 0.02
229, 0.05, 0.8, 0
230, 0.05, 0.8, 0.02
231, 0.05, 0.825, 0
232, 0.05, 0.825, 0.02
233, 0.05, 0.85, 0
234, 0.05, 0.85, 0.02
235, 0.05, 0.875, 0
236, 0.05, 0.875, 0.02
237, 0.05, 0.9, 0
238, 0.05, 0.9, 0.02
239, 0.05, 0.925, 0
240, 0.05, 0.925, 0.02
241, 0.05, 0.95, 0
242, 0.05, 0.95, 0.02
243, 0.05, 0.975, 0
244, 0.05, 0.975, 0.02
245, 0.05, 1, 0
246, 0.05, 1, 0.02
247, 0.075, 0, 0
248, 0.075, 0, 0.02
249, 0.075, 0.025, 0
250, 0.075, 0.025, 0.02
251, 0.075, 0.05, 0
252, 0.075, 0.05, 0.02
253, 0.075, 0.075, 0
254, 0.075, 0.075, 0.02
255, 0.075, 0.1, 0
256, 0.075, 0.1, 0.02
257, 0.075, 0.125, 0
258, 0.075, 0.125, 0.02
259, 0.075, 0.15, 0
260, 0.075, 0.15, 0.02
261, 0.075, 0.175, 0
262, 0.075, 0.175, 0.02
263, 0.075, 0.2, 0
264, 0.075, 0.2, 0.02
265, 0.075, 0.225, 0
266, 0.075, 0.225, 0.02
267, 0.075, 0.25, 0
268, 0.075, 0.25, 0.02
269, 0.075, 0.275, 0
270, 0.075, 0.275, 0.02
271, 0.075, 0.3, 0
272, 0.075, 0.3, 0.02
273, 0.075, 0.325, 0
274, 0.075, 0.325, 0.02
275, 0.075, 0.35, 0
276, 0.075, 0.35, 0.02
277, 0.075, 0.375, 0
278, 0.075, 0.375, 0.02
279, 0.075, 0.4, 0
280, 0.075, 0.4, 0.02
281, 0.075, 0.425, 0
282, 0.075, 0.425, 0.02
283, 0.075, 0.45, 0
284, 0.075, 0.45, 0.02
285, 0.075, 0.475, 0
286, 0.075, 0.475, 0.02
287, 0.075, 0.5, 0
288, 0.075, 0.5, 0.02
289, 0.075, 0.525, 0
290, 0.075, 0.525, 0.02
291, 0.075, 0.55, 0
292, 0.075, 0.55, 0.02
293, 0.075, 0.575, 0
294, 0.075, 0.575, 0.02
295, 0.075, 0.6, 0
296, 0.075, 0.6, 0.02
297, 0.075, 0.625, 0
298, 0.075, 0.625, 0.02
299, 0.075, 0.65, 0
300, 0.075, 0.65, 0.02
301, 0.075, 0.675, 0
302, 0.075, 0.675, 0.02
303, 0.075, 0.7, 0
304, 0.075, 0.7, 0.02
305, 0.075, 0.725, 0
306, 0.075, 0.725, 0.02
307, 0.075, 0.75, 0
308, 0.075, 0.75, 0.02
309, 0.075, 0.775, 0
310, 0.075, 0.775, 0.02
311, 0.075, 0.8, 0
312, 0.075, 0.8, 0.02
313, 0.075, 0.825, 0
314, 0.075, 0.825, 0.02
315, 0.075, 0.85, 0
316, 0.075, 0.85, 0.02
317, 0.075, 0.875, 0
318, 0.075, 0.875, 0.02
319, 0.075, 0.9, 0
320, 0.075, 0.9, 0.02
321, 0.075, 0.925, 0
322, 0.075, 0.925, 0.02
323, 0.075, 0.95, 0
324, 0.075, 0.95, 0.02
325, 0.075, 0.975, 0
326, 0.075, 0.975, 0.02
327, 0.075, 1, 0
328, 0.075, 1, 0.02
329, 0.1, 0, 0
330, 0.1, 0, 0.02
331, 0.1, 0.025, 0
332, 0.1, 0.025, 0.02
333, 0.1, 0.05, 0
334, 0.1, 0.05, 0.02
335, 0.1, 0.075, 0
336, 0.1, 0.075, 0.02
337, 0.1, 0.1, 0
338, 0.1, 0.1, 0.02
339, 0.1, 0.125, 0
340, 0.1, 0.125, 0.02
341, 0.1, 0.15, 0
342, 0.1, 0.15, 0.02
343, 0.1, 0.175, 0
344, 0.1, 0.175, 0.02
345, 0.1, 0.2, 0
346, 0.1, 0.2, 0.02
347, 0.1, 0.225, 0
348, 0.1, 0.225, 0.02
349, 0.1, 0.25, 0
350, 0.1, 0.25, 0.02
351, 0.1, 0.275, 0
352, 0.1, 0.275, 0.02
353, 0.1, 0.3, 0
354, 0.1, 0.3, 0.02
355, 0.1, 0.325, 0
356, 0.1, 0.325, 0.02
357, 0.1, 0.35, 0
358, 0.1, 0.35, 0.02
359, 0.1, 0.375, 0
360, 0.1, 0.375, 0.02
361, 0.1, 0.4, 0
362, 0.1, 0.4, 0.02
363, 0.1, 0.425, 0
364, 0.1, 0.425, 0.02
365, 0.1, 0.45, 0
366, 0.1, 0.45, 0.02
367, 0.1, 0.475, 0
368, 0.1, 0.475, 0.02
369, 0.1, 0.5, 0
370, 0.1, 0.5, 0.02
371, 0.1, 0.525, 0
372, 0.1, 0.525, 0.02
373, 0.1, 0.55, 0
374, 0.1, 0.55, 0.02
375, 0.1, 0.575, 0
376, 0.1, 0.575, 0.02
377, 0.1, 0.6, 0
378, 0.1, 0.6, 0.02
379, 0.1, 0.625, 0
380, 0.1, 0.625, 0.02
381, 0.1, 0.65, 0
382, 0.1, 0.65, 0.02
383, 0.1, 0.675, 0
384, 0.1, 0.675, 0.02
385, 0.1, 0.7, 0
386, 0.1, 0.7, 0.02
387, 0.1, 0.725, 0
388, 0.1, 0.725, 0.02
389, 0.1, 0.75, 0
390, 0.1, 0.75, 0.02
391, 0.1, 0.775, 0
392, 0.1, 0.775, 0.02
393, 0.1, 0.8, 0
394, 0.1, 0.8, 0.02
395, 0.1, 0.825, 0
396, 0.1, 0.825, 0.02
397, 0.1, 0.85, 0
398, 0.1, 0.85, 0.02
399, 0.1, 0.875, 0
400, 0.1, 0.875, 0.02
401, 0.1, 0.9, 0
402, 0.1, 0.9, 0.02
403, 0.1, 0.925, 0
404, 0.1, 0.925, 0.02
405, 0.1, 0.95, 0
406, 0.1, 0.95, 0.02
407, 0.1, 0.975, 0
408, 0.1, 0.975, 0.02
409, 0.1, 1, 0
410, 0.1, 1, 0.02
411, 0.125, 0, 0
412, 0.125, 0, 0.02
413, 0.125, 0.025, 0
414, 0.125, 0.025, 0.02
415, 0.125, 0.05, 0
416, 0.125, 0.05, 0.02
417, 0.125, 0.075, 0
418, 0.125, 0.075, 0.02
419, 0.125, 0.1, 0
420, 0.125, 0.1, 0.02
421, 0.125, 0.125, 0
422, 0.125, 0.125, 0.02
423, 0.125, 0.15, 0
424, 0.125, 0.15, 0.02
425, 0.125, 0.175, 0
426, 0.125, 0.175, 0.02
427, 0.125, 0.2, 0
428, 0.125, 0.2, 0.02
429, 0.125, 0.225, 0
430, 0.125, 0.225, 0.02
431, 0.125, 0.25, 0
432, 0.125, 0.25, 0.02
433, 0.125, 0.275, 0
434, 0.125, 0.275, 0.02
435, 0.125, 0.3, 0
436, 0.125, 0.3, 0.02
437, 0.125, 0.325, 0
438, 0.125, 0.325, 0.02
439, 0.125, 0.35, 0
440, 0.125, 0.35, 0.02
441, 0.125, 0.375, 0
442, 0.125, 0.375, 0.02
443, 0.125, 0.4, 0
444, 0.125, 0.4, 0.02
445, 0.125, 0.425, 0
446, 0.125, 0.425, 0.02
447, 0.125, 0.45, 0
448, 0.125, 0.45, 0.02
449, 0.125, 0.475, 0
450, 0.125, 0.475, 0.02
451, 0.125, 0.5, 0
452, 0.125, 0.5, 0.02
453, 0.125, 0.525, 0
454, 0.125, 0.525, 0.02
455, 0.125, 0.55, 0
456, 0.125, 0.55, 0.02
457, 0.125, 0.575, 0
458, 0.125, 0.575, 0.02
459, 0.125, 0.6, 0
460, 0.125, 0.6, 0.02
461, 0.125, 0.625, 0
462, 0.125, 0.625, 0.02
463, 0.125, 0.65, 0
464, 0.125, 0.65, 0.02
465, 0.125, 0.675, 0
466, 0.125, 0.675, 0.02
467, 0.125, 0.7, 0
468, 0.125, 0.7, 0.02
469, 0.125, 0.725, 0
470, 0.125, 0.725, 0.02
471, 0.125, 0.75, 0
472, 0.125, 0.75, 0.02
473, 0.125, 0.775, 0
474, 0.125, 0.775, 0.02
475, 0.125, 0.8, 0
476, 0.125, 0.8, 0.02
477, 0.125, 0.825, 0
478, 0.125, 0.825, 0.02
479, 0.125, 0.85, 0
480, 0.125, 0.85, 0.02
481, 0.125, 0.875, 0
482, 0.125, 0.875, 0.02
483, 0.125, 0.9, 0
484, 0.125, 0.9, 0.02
485, 0.125, 0.925, 0
486, 0.125, 0.925, 0.02
487, 0.125, 0.95, 0
488, 0.125, 0.95, 0.02
489, 0.125, 0.975, 0
490, 0.125, 0.975, 0.02
491, 0.125, 1, 0
492, 0.125, 1, 0.02
493, 0.15, 0, 0
494, 0.15, 0, 0.02
495, 0.15, 0.025, 0
496, 0.15, 0.025, 0.02
497, 0.15, 0.05, 0
498, 0.15, 0.05, 0.02
499, 0.15, 0.075, 0
500, 0.15, 0.075, 0.02
501, 0.15, 0.1, 0
502, 0.15, 0.1, 0.02
503, 0.15, 0.125, 0
504, 0.15, 0.125, 0.02
505, 0.15, 0.15, 0
506, 0.15, 0.15, 0.02
507, 0.15, 0.175, 0
508, 0.15, 0.175, 0.02
509, 0.15, 0.2, 0
510, 0.15, 0.2, 0.02
511, 0.15, 0.225, 0
512, 0.15, 0.225, 0.02
513, 0.15, 0.25, 0
514, 0.15, 0.25, 0.02
515, 0.15, 0.275, 0
516, 0.15, 0.275, 0.02
517, 0.15, 0.3, 0
518, 0.15, 0.3, 0.02
519, 0.15, 0.325, 0
520, 0.15, 0.325, 0.02
521, 0.15, 0.35, 0
522, 0.15, 0.35, 0.02
523, 0.15, 0.375, 0
524, 0.15, 0.375, 0.02
525, 0.15, 0.4, 0
526, 0.15, 0.4, 0.02
527, 0.15, 0.425, 0
528, 0.15, 0.425, 0.02
529, 0.15, 0.45, 0
530, 0.15, 0.45, 0.02
531, 0.15, 0.475, 0
532, 0.15, 0.475, 0.02
533, 0.15, 0.5, 0
534, 0.15, 0.5, 0.02
535, 0.15, 0.525, 0
536, 0.15, 0.525, 0.02
537, 0.15, 0.55, 0
538, 0.15, 0.55, 0.02
539, 0.15, 0.575, 0
540, 0.15, 0.575, 0.02
541, 0.15, 0.6, 0
542, 0.15, 0.6, 0.02
543, 0.15, 0.625, 0
544, 0.15, 0.625, 0.02
545, 0.15, 0.65, 0
546, 0.15, 0.65, 0.02
547, 0.15, 0.675, 0
548, 0.15, 0.675, 0.02
549, 0.15, 0.7, 0
550, 0.15, 0.7, 0.02
551, 0.15, 0.725, 0
552, 0.15, 0.725, 0.02
553, 0.15, 0.75, 0
554, 0.15, 0.75, 0.02
555, 0.15, 0.775, 0
556, 0.15, 0.775, 0.02
557, 0.15, 0.8, 0
558, 0.15, 0.8, 0.02
559, 0.15, 0.825, 0
560, 0.15, 0.825, 0.02
561, 0.15, 0.85, 0
562, 0.15, 0.85, 0.02
563, 0.15, 0.875, 0
564, 0.15, 0.875, 0.02
565, 0.15, 0.9, 0
566, 0.15, 0.9, 0.02
567, 0.15, 0.925, 0
568, 0.15, 0.925, 0.02
569, 0.15, 0.95, 0
570, 0.15, 0.95, 0.02
571, 0.15, 0.975, 0
572, 0.15, 0.975, 0.02
573, 0.15, 1, 0
574, 0.15, 1, 0.02
575, 0.175, 0, 0
576, 0.175, 0, 0.02
577, 0.175, 0.025, 0
578, 0.175, 0.025, 0.02
579, 0.175, 0.05, 0
580, 0.175, 0.05, 0.02
581, 0.175, 0.075, 0
582, 0.175, 0.075, 0.02
583, 0.175, 0.1, 0
584, 0.175, 0.1, 0.02
585, 0.175, 0.125, 0
586, 0.175, 0.125, 0.02
587, 0.175, 0.15, 0
588, 0.175, 0.15, 0.02
589, 0.175, 0.175, 0
590, 0.175, 0.175, 0.02
591, 0.175, 0.2, 0
592, 0.175, 0.2, 0.02
593, 0.175, 0.225, 0
594, 0.175, 0.225, 0.02
595, 0.175, 0.25, 0
596, 0.175, 0.25, 0.02
597, 0.175, 0.275, 0
598, 0.175, 0.275, 0.02
599, 0.175, 0.3, 0
600, 0.175, 0.3, 0.02
601, 0.175, 0.325, 0
602, 0.175, 0.325, 0.02
603, 0.175, 0.35, 0
604, 0.175, 0.35, 0.02
605, 0.175, 0.375, 0
606, 0.175, 0.375, 0.02
607, 0.175, 0.4, 0
608, 0.175, 0.4, 0.02
609, 0.175, 0.425, 0
610, 0.175, 0.425, 0.02
611, 0.175, 0.45, 0
612, 0.175, 0.45, 0.02
613, 0.175, 0.475, 0
614, 0.175, 0.475, 0.02
615, 0.175, 0.5, 0
616, 0.175, 0.5, 0.02
617, 0.175, 0.525, 0
618, 0.175, 0.525, 0.02
619, 0.175, 0.55, 0
620, 0.175, 0.55, 0.02
621, 0.175, 0.575, 0
622, 0.175, 0.575, 0.02
623, 0.175, 0.6, 0
624, 0.175, 0.6, 0.02
625, 0.175, 0.625, 0
626, 0.175, 0.625, 0.02
627, 0.175, 0.65, 0
628, 0.175, 0.65, 0.02
629, 0.175, 0.675, 0
630, 0.175, 0.675, 0.02
631, 0.175, 0.7, 0
632, 0.175, 0.7, 0.02
633, 0.175, 0.725, 0
634, 0.175, 0.725, 0.02
635, 0.175, 0.75, 0
636, 0.175, 0.75, 0.02
637, 0.175, 0.775, 0
638, 0.175, 0.775, 0.02
639, 0.175, 0.8, 0
640, 0.175, 0.8, 0.02
641, 0.175, 0.825, 0
642, 0.175, 0.825, 0.02
643, 0.175, 0.85, 0
644, 0.175, 0.85, 0.02
645, 0.175, 0.875, 0
646, 0.175, 0.875, 0.02
647, 0.175, 0.9, 0
648, 0.175, 0.9, 0.02
649, 0.175, 0.925, 0
650, 0.175, 0.925, 0.02
651, 0.175, 0.95, 0
652, 0.175, 0.95, 0.02
653, 0.175, 0.975, 0
654, 0.175, 0.975, 0.02
655, 0.175, 1, 0
656, 0.175, 1, 0.02
657, 0.2, 0, 0
658, 0.2, 0, 0.02
659, 0.2, 0.025, 0
660, 0.2, 0.025, 0.02
661, 0.2, 0.05, 0
662, 0.2, 0.05, 0.02
663, 0.2, 0.075, 0
664, 0.2, 0.075, 0.02
665, 0.2, 0.1, 0
666, 0.2, 0.1, 0.02
667, 0.2, 0.125, 0
668, 0.2, 0.125, 0.02
669, 0.2, 0.15, 0
670, 0.2, 0.15, 0.02
671, 0.2, 0.175, 0
672, 0.2, 0.175, 0.02
673, 0.2, 0.2, 0
674, 0.2, 0.2, 0.02
675, 0.2, 0.225, 0
676, 0.2, 0.225, 0.02
677, 0.2, 0.25, 0
678, 0.2, 0.25, 0.02
679, 0.2, 0.275, 0
680, 0.2, 0.275, 0.02
681, 0.2, 0.3, 0
682, 0.2, 0.3, 0.02
683, 0.2, 0.325, 0
684, 0.2, 0.325, 0.02
685, 0.2, 0.35, 0
686, 0.2, 0.35, 0.02
687, 0.2, 0.375, 0
688, 0.2, 0.375, 0.02
689, 0.2, 0.4, 0
690, 0.2, 0.4, 0.02
691, 0.2, 0.425, 0
692, 0.2, 0.425, 0.02
693, 0.2, 0.45, 0
694, 0.2, 0.45, 0.02
695, 0.2, 0.475, 0
696, 0.2, 0.475, 0.02
697, 0.2, 0.5, 0
698, 0.2, 0.5, 0.02
699, 0.2, 0.525, 0
700, 0.2, 0.525, 0.02
701, 0.2, 0.55, 0
702, 0.2, 0.55, 0.02
703, 0.2, 0.575, 0
704, 0.2, 0.575, 0.02
705, 0.2, 0.6, 0
706, 0.2, 0.6, 0.02
707, 0.2, 0.625, 0
708, 0.2, 0.625, 0.02
709, 0.2, 0.65, 0
710, 0.2, 0.65, 0.02
711, 0.2, 0.675, 0
712, 0.2, 0.675, 0.02
713, 0.2, 0.7, 0
714, 0.2, 0.7, 0.02
715, 0.2, 0.725, 0
716, 0.2, 0.725, 0.02
717, 0.2, 0.75, 0
718, 0.2, 0.75, 0.02
719, 0.2, 0.775, 0
720, 0.2, 0.775, 0.02
721, 0.2, 0.8, 0
722, 0.2, 0.8, 0.02
723, 0.2, 0.825, 0
724, 0.2, 0.825, 0.02
725, 0.2, 0.85, 0
726, 0.2, 0.85, 0.02
727, 0.2, 0.875, 0
728, 0.2, 0.875, 0.02
729, 0.2, 0.9, 0
730, 0.2, 0.9, 0.02
731, 0.2, 0.925, 0
732, 0.2, 0.925, 0.02
733, 0.2, 0.95, 0
734, 0.2, 0.95, 0.02
735, 0.2, 0.975, 0
736, 0.2, 0.975, 0.02
737, 0.2, 1, 0
738, 0.2, 1, 0.02
739, 0.225, 0, 0
740, 0.225, 0, 0.02
741, 0.225, 0.025, 0
742, 0.225, 0.025, 0.02
743, 0.225, 0.05, 0
744, 0.225, 0.05, 0.02
745, 0.225, 0.075, 0
746, 0.225, 0.075, 0.02
747, 0.225, 0.1, 0
748, 0.225, 0.1, 0.02
749, 0.225, 0.125, 0
750, 0.225, 0.125, 0.02
751, 0.225, 0.15, 0
752, 0.225, 0.15, 0.02
753, 0.225, 0.175, 0
754, 0.225, 0.175, 0.02
755, 0.225, 0.2, 0
756, 0.225, 0.2, 0.02
757, 0.225, 0.225, 0
758, 0.225, 0.225, 0.02
759, 0.225, 0.25, 0
760, 0.225, 0.25, 0.02
761, 0.225, 0.275, 0
762, 0.225, 0.275, 0.02
763, 0.225, 0.3, 0
764, 0.225, 0.3, 0.02
765, 0.225, 0.325, 0
766, 0.225, 0.325, 0.02
767, 0.225, 0.35, 0
768, 0.225, 0.35, 0.02
769, 0.225, 0.375, 0
770, 0.225, 0.375, 0.02
771, 0.225, 0.4, 0
772, 0.225, 0.4, 0.02
773, 0.225, 0.425, 0
774, 0.225, 0.425, 0.02
775, 0.225, 0.45, 0
776, 0.225, 0.45, 0.02
777, 0.225, 0.475, 0
778, 0.225, 0.475, 0.02
779, 0.225, 0.5, 0
780, 0.225, 0.5, 0.02
781, 0.225, 0.525, 0
782, 0.225, 0.525, 0.02
783, 0.225, 0.55, 0
784, 0.225, 0.55, 0.02
785, 0.225, 0.575, 0
786, 0.225, 0.575, 0.02
787, 0.225, 0.6, 0
788, 0.225, 0.6, 0.02
789, 0.225, 0.625, 0
790, 0.225, 0.625, 0.02
791, 0.225, 0.65, 0
792, 0.225, 0.65, 0.02
793, 0.225, 0.675, 0
794, 0.225, 0.675, 0.02
795, 0.225, 0.7, 0
796, 0.225, 0.7, 0.02
797, 0.225, 0.725, 0
798, 0.225, 0.725, 0.02
799, 0.225, 0.75, 0
800, 0.225, 0.75, 0.02
801, 0.225, 0.775, 0
802, 0.225, 0.775, 0.02
803, 0.225, 0.8, 0
804, 0.225, 0.8, 0.02
805, 0.225, 0.825, 0
806, 0.225, 0.825, 0.02
807, 0.225, 0.85, 0
808, 0.225, 0.85, 0.02
809, 0.225, 0.875, 0
810, 0.225, 0.875, 0.02
811, 0.225, 0.9, 0
812, 0.225, 0.9, 0.02
813, 0.225, 0.925, 0
814, 0.225, 0.925, 0.02
815, 0.225, 0.95, 0
816, 0.225, 0.95, 0.02
817, 0.225, 0.975, 0
818, 0.225, 0.975, 0.02
819, 0.225, 1, 0
820, 0.225, 1, 0.02
821, 0.25, 0, 0
822, 0.25, 0, 0.02
823, 0.25, 0.025, 0
824, 0.25, 0.025, 0.02
825, 0.25, 0.05, 0
826, 0.25, 0.05, 0.02
827, 0.25, 0.075, 0
828, 0.25, 0.075, 0.02
829, 0.25, 0.1, 0
830, 0.25, 0.1, 0.02
831, 0.25, 0.125, 0
832, 0.25, 0.125, 0.02
833, 0.25, 0.15, 0
834, 0.25, 0.15, 0.02
835, 0.25, 0.175, 0
836, 0.25, 0.175, 0.02
837, 0.25, 0.2, 0
838, 0.25, 0.2, 0.02
839, 0.25, 0.225, 0
840, 0.25, 0.225, 0.02
841, 0.25, 0.25, 0
842, 0.25, 0.25, 0.02
843, 0.25, 0.275, 0
844, 0.25, 0.275, 0.02
845, 0.25, 0.3, 0
846, 0.25, 0.3, 0.02
847, 0.25, 0.325, 0
848, 0.25, 0.325, 0.02
849, 0.25, 0.35, 0
850, 0.25, 0.35, 0.02
851, 0.25, 0.375, 0
852, 0.25, 0.375, 0.02
853, 0.25, 0.4, 0
854, 0.25, 0.4, 0.02
855, 0.25, 0.425, 0
856, 0.25, 0.425, 0.02
857, 0.25, 0.45, 0
858, 0.25, 0.45, 0.02
859, 0.25, 0.475, 0
860, 0.25, 0.475, 0.02
861, 0.25, 0.5, 0
862, 0.25, 0.5, 0.02
863, 0.25, 0.525, 0
864, 0.25, 0.525, 0.02
865, 0.25, 0.55, 0
866, 0.25, 0.55, 0.02
867, 0.25, 0.575, 0
868, 0.25, 0.575, 0.02
869, 0.25, 0.6, 0
870, 0.25, 0.6, 0.02
871, 0.25, 0.625, 0
872, 0.25, 0.625, 0.02
873, 0.25, 0.65, 0
874, 0.25, 0.65, 0.02
875, 0.25, 0.675, 0
876, 0.25, 0.675, 0.02
877, 0.25, 0.7, 0
878, 0.25, 0.7, 0.02
879, 0.25, 0.725, 0
880, 0.25, 0.725, 0.02
881, 0.25, 0.75, 0
882, 0.25, 0.75, 0.02
883, 0.25, 0.775, 0
884, 0.25, 0.775, 0.02
885, 0.25, 0.8, 0
886, 0.25, 0.8, 0.02
887, 0.25, 0.825, 0
888, 0.25, 0.825, 0.02
889, 0.25, 0.85, 0
890, 0.25, 0.85, 0.02
891, 0.25, 0.875, 0
892, 0.25, 0.875, 0.02
893, 0.25, 0.9, 0
894, 0.25, 0.9, 0.02
895, 0.25, 0.925, 0
896, 0.25, 0.925, 0.02
897, 0.25, 0.95, 0
898, 0.25, 0.95, 0.02
899, 0.25, 0.975, 0
900, 0.25, 0.975, 0.02
901, 0.25, 1, 0
902, 0.25, 1, 0.02
903, 0.275, 0, 0
904, 0.275, 0, 0.02
905, 0.275, 0.025, 0
906, 0.275, 0.025, 0.02
907, 0.275, 0.05, 0
908, 0.275, 0.05, 0.02
909, 0.275, 0.075, 0
910, 0.275, 0.075, 0.02
911, 0.275, 0.1, 0
912, 0.275, 0.1, 0.02
913, 0.275, 0.125, 0
914, 0.275, 0.125, 0.02
915, 0.275, 0.15, 0
916, 0.275, 0.15, 0.02
917, 0.275, 0.175, 0
918, 0.275, 0.175, 0.02
919, 0.275, 0.2, 0
920, 0.275, 0.2, 0.02
921, 0.275, 0.225, 0
922, 0.275, 0.225, 0.02
923, 0.275, 0.25, 0
924, 0.275, 0.25, 0.02
925, 0.275, 0.275, 0
926, 0.275, 0.275, 0.02
927, 0.275, 0.3, 0
928, 0.275, 0.3, 0.02
929, 0.275, 0.325, 0
930, 0.275, 0.325, 0.02
931, 0.275, 0.35, 0
932, 0.275, 0.35, 0.02
933, 0.275, 0.375, 0
934, 0.275, 0.375, 0.02
935, 0.275, 0.4, 0
936, 0.275, 0.4, 0.02
937, 0.275, 0.425, 0
938, 0.275, 0.425, 0.02
939, 0.275, 0.45, 0
940, 0.275, 0.45, 0.02
941, 0.275, 0.475, 0
942, 0.275, 0.475, 0.02
943, 0.275, 0.5, 0
944, 0.275, 0.5, 0.02
945, 0.275, 0.525, 0
946, 0.275, 0.525, 0.02
947, 0.275, 0.55, 0
948, 0.275, 0.55, 0.02
949, 0.275, 0.575, 0
950, 0.275, 0.575, 0.02
951, 0.275, 0.6, 0
952, 0.275, 0.6, 0.02
953, 0.275, 0.625, 0
954, 0.275, 0.625, 0.02
955, 0.275, 0.65, 0
956, 0.275, 0.65, 0.02
957, 0.275, 0.675, 0
958, 0.275, 0.675, 0.02
959, 0.275, 0.7, 0
960, 0.275, 0.7, 0.02
961, 0.275, 0.725, 0
962, 0.275, 0.725, 0.02
963, 0.275, 0.75, 0
964, 0.275, 0.75, 0.02
965, 0.275, 0.775, 0
966, 0.275, 0.775, 0.02
967, 0.275, 0.8, 0
968, 0.275, 0.8, 0.02
969, 0.275, 0.825, 0
970, 0.275, 0.825, 0.02
971, 0.275, 0.85, 0
972, 0.275, 0.85, 0.02
973, 0.275, 0.875, 0
974, 0.275, 0.875, 0.02
975, 0.275, 0.9, 0
976, 0.275, 0.9, 0.02
977, 0.275, 0.925, 0
978, 0.275, 0.925, 0.02
979, 0.275, 0.95, 0
980, 0.275, 0.95, 0.02
981, 0.275, 0.975, 0
982, 0.275, 0.975, 0.02
983, 0.275, 1, 0
984, 0.275, 1, 0.02
985, 0.3, 0, 0
986, 0.3, 0, 0.02
987, 0.3, 0.025, 0
988, 0.3, 0.025, 0.02
989, 0.3, 0.05, 0
990, 0.3, 0.05, 0.02
991, 0.3, 0.075, 0
992, 0.3, 0.075, 0.02
993, 0.3, 0.1, 0
994, 0.3, 0.1, 0.02
995, 0.3, 0.125, 0
996, 0.3, 0.125, 0.02
997, 0.3, 0.15, 0
998, 0.3, 0.15, 0.02
999, 0.3, 0.175, 0
1000, 0.3, 0.175, 0.02
1001, 0.3, 0.2, 0
1002, 0.3, 0.2, 0.02
1003, 0.3, 0.225, 0
1004, 0.3, 0.225, 0.02
1005, 0.3, 0.25, 0
1006, 0.3, 0.25, 0.02
1007, 0.3, 0.275, 0
1008, 0.3, 0.275, 0.02
1009, 0.3, 0.3, 0
1010, 0.3, 0.3, 0.02
1011, 0.3, 0.325, 0
1012, 0.3, 0.325, 0.02
1013, 0.3, 0.35, 0
1014, 0.3, 0.35, 0.02
1015, 0.3, 0.375, 0
1016, 0.3, 0.375, 0.02
1017, 0.3, 0.4, 0
1018, 0.3, 0.4, 0.02
1019, 0.3, 0.425, 0
1020, 0.3, 0.425, 0.02
1021, 0.3, 0.45, 0
1022, 0.3, 0.45, 0.02
1023, 0.3, 0.475, 0
1024, 0.3, 0.475, 0.02
1025, 0.3, 0.5, 0
1026, 0.3, 0.5, 0.02
1027, 0.3, 0.525, 0
1028, 0.3, 0.525, 0.02
1029, 0.3, 0.55, 0
1030, 0.3, 0.55, 0.02
1031, 0.3, 0.575, 0
1032, 0.3, 0.575, 0.02
1033, 0.3, 0.6, 0
1034, 0.3, 0.6, 0.02
1035, 0.3, 0.625, 0
1036, 0.3, 0.625, 0.02
1037, 0.3, 0.65, 0
1038, 0.3, 0.65, 0.02
1039, 0.3, 0.675, 0
1040, 0.3, 0.675, 0.02
1041, 0.3, 0.7, 0
1042, 0.3, 0.7, 0.02
1043, 0.3, 0.725, 0
1044, 0.3, 0.725, 0.02
1045, 0.3, 0.75, 0
1046, 0.3, 0.75, 0.02
1047, 0.3, 0.775, 0
1048, 0.3, 0.775, 0.02
1049, 0.3, 0.8, 0
1050, 0.3, 0.8, 0.02
1051, 0.3, 0.825, 0
1052, 0.3, 0.825, 0.02
1053, 0.3, 0.85, 0
1054, 0.3, 0.85, 0.02
1055, 0.3, 0.875, 0
1056, 0.3, 0.875, 0.02
1057, 0.3, 0.9, 0
1058, 0.3, 0.9, 0.02
1059, 0.3, 0.925, 0
1060, 0.3, 0.925, 0.02
1061, 0.3, 0.95, 0
1062, 0.3, 0.95, 0.02
1063, 0.3, 0.975, 0
1064, 0.3, 0.975, 0.02
1065, 0.3, 1, 0
1066, 0.3, 1, 0.02
1067, 0.325, 0, 0
1068, 0.325, 0, 0.02
1069, 0.325, 0.025, 0
1070, 0.325, 0.025, 0.02
1071, 0.325, 0.05, 0
1072, 0.325, 0.05, 0.02
1073, 0.325, 0.075, 0
1074, 0.325, 0.075, 0.02
1075, 0.325, 0.1, 0
1076, 0.325, 0.1, 0.02
1077, 0.325, 0.125, 0
1078, 0.325, 0.125, 0.02
1079, 0.325, 0.15, 0
1080, 0.325, 0.15, 0.02
1081, 0.325, 0.175, 0
1082, 0.325, 0.175, 0.02
1083, 0.325, 0.2, 0
1084, 0.325, 0.2, 0.02
1085, 0.325, 0.225, 0
1086, 0.325, 0.225, 0.02
1087, 0.325, 0.25, 0
1088, 0.325, 0.25, 0.02
1089, 0.325, 0.275, 0
1090, 0.325, 0.275, 0.02
1091, 0.325, 0.3, 0
1092, 0.325, 0.3, 0.02
1093, 0.325, 0.325, 0
1094, 0.325, 0.325, 0.02
1095, 0.325, 0.35, 0
1096, 0.325, 0.35, 0.02
1097, 0.325, 0.375, 0
1098, 0.325, 0.375, 0.02
1099, 0.325, 0.4, 0
1100, 0.325, 0.4, 0.02
1101, 0.325, 0.425, 0
1102, 0.325, 0.425, 0.02
1103, 0.325, 0.45, 0
1104, 0.325, 0.45, 0.02
1105, 0.325, 0.475, 0
1106, 0.325, 0.475, 0.02
1107, 0.325, 0.5, 0
1108, 0.325, 0.5, 0.02
1109, 0.325, 0.525, 0
1110, 0.325, 0.525, 0.02
1111, 0.325, 0.55, 0
1112, 0.325, 0.55, 0.02
1113, 0.325, 0.575, 0
1114, 0.325, 0.575, 0.02
1115, 0.325, 0.6, 0
1116, 0.325, 0.6, 0.02
1117, 0.325, 0.625, 0
1118, 0.325, 0.625, 0.02
1119, 0.325, 0.65, 0
1120, 0.325, 0.65, 0.02
1121, 0.325, 0.675, 0
1122, 0.325, 0.675, 0.02
1123, 0.325, 0.7, 0
1124, 0.325, 0.7, 0.02
1125, 0.325, 0.725, 0
1126, 0.325, 0.725, 0.02
1127, 0.325, 0.75, 0
1128, 0.325, 0.75, 0.02
1129, 0.325, 0.775, 0
1130, 0.325, 0.775, 0.02
1131, 0.325, 0.8, 0
1132, 0.325, 0.8, 0.02
1133, 0.325, 0.825, 0
1134, 0.325, 0.825, 0.02
1135, 0.325, 0.85, 0
1136, 0.325, 0.85, 0.02
1137, 0.325, 0.875, 0
1138, 0.325, 0.875, 0.02
1139, 0.325, 0.9, 0
1140, 0.325, 0.9, 0.02
1141, 0.325, 0.925, 0
1142, 0.325, 0.925, 0.02
1143, 0.325, 0.95, 0
1144, 0.325, 0.95, 0.02
1145, 0.325, 0.975, 0
1146, 0.325, 0.975, 0.02
1147, 0.325, 1, 0
1148, 0.325, 1, 0.02
1149, 0.35, 0, 0
1150, 0.35, 0, 0.02
1151, 0.35, 0.025, 0
1152, 0.35, 0.025, 0.02
1153, 0.35, 0.05, 0
1154, 0.35, 0.05, 0.02
1155, 0.35, 0.075, 0
1156, 0.35, 0.075, 0.02
1157, 0.35, 0.1, 0
1158, 0.35, 0.1, 0.02
1159, 0.35, 0.125, 0
1160, 0.35, 0.125, 0.02
1161, 0.35, 0.15, 0
1162, 0.35, 0.15, 0.02
1163, 0.35, 0.175, 0
1164, 0.35, 0.175, 0.02
1165, 0.35, 0.2, 0
1166, 0.35, 0.2, 0.02
1167, 0.35, 0.225, 0
1168, 0.35, 0.225, 0.02
1169, 0.35, 0.25, 0
1170, 0.35, 0.25, 0.02
1171, 0.35, 0.275, 0
1172, 0.35, 0.275, 0.02
1173, 0.35, 0.3, 0
1174, 0.35, 0.3, 0.02
1175, 0.35, 0.325, 0
1176, 0.35, 0.325, 0.02
1177, 0.35, 0.35, 0
1178, 0.35, 0.35, 0.02
1179, 0.35, 0.375, 0
1180, 0.35, 0.375, 0.02
1181, 0.35, 0.4, 0
1182, 0.35, 0.4, 0.02
1183, 0.35, 0.425, 0
1184, 0.35, 0.425, 0.02
1185, 0.35, 0.45, 0
1186, 0.35, 0.45, 0.02
1187, 0.35, 0.475, 0
1188, 0.35, 0.475, 0.02
1189, 0.35, 0.5, 0
1190, 0.35, 0.5, 0.02
1191, 0.35, 0.525, 0
1192, 0.35, 0.525, 0.02
1193, 0.35, 0.55, 0
1194, 0.35, 0.55, 0.02
1195, 0.35, 0.575, 0
1196, 0.35, 0.575, 0.02
1197, 0.35, 0.6, 0
1198, 0.35, 0.6, 0.02
1199, 0.35, 0.625, 0
1200, 0.35, 0.625, 0.02
1201, 0.35, 0.65, 0
1202, 0.35, 0.65, 0.02
1203, 0.35, 0.675, 0
1204, 0.35, 0.675, 0.02
1205, 0.35, 0.7, 0
1206, 0.35, 0.7, 0.02
1207, 0.35, 0.725, 0
1208, 0.35, 0.725, 0.02
1209, 0.35, 0.75, 0
1210, 0.35, 0.75, 0.02
1211, 0.35, 0.775, 0
1212, 0.35, 0.775, 0.02
1213, 0.35, 0.8, 0
1214, 0.35, 0.8, 0.02
1215, 0.35, 0.825, 0
1216, 0.35, 0.825, 0.02
1217, 0.35, 0.85, 0
1218, 0.35, 0.85, 0.02
1219, 0.35, 0.875, 0
1220, 0.35, 0.875, 0.02
1221, 0.35, 0.9, 0
1222, 0.35, 0.9, 0.02
1223, 0.35, 0.925, 0
1224, 0.35, 0.925, 0.02
1225, 0.35, 0.95, 0
1226, 0.35, 0.95, 0.02
1227, 0.35, 0.975, 0
1228, 0.35, 0.975, 0.02
1229, 0.35, 1, 0
1230, 0.35, 1, 0.02
1231, 0.375, 0, 0
1232, 0.375, 0, 0.02
1233, 0.375, 0.025, 0
1234, 0.375, 0.025, 0.02
1235, 0.375, 0.05, 0
1236, 0.375, 0.05, 0.02
1237, 0.375, 0.075, 0
1238, 0.375, 0.075, 0.02
1239, 0.375, 0.1, 0
1240, 0.375, 0.1, 0.02
1241, 0.375, 0.125, 0
1242, 0.375, 0.125, 0.02
1243, 0.375, 0.15, 0
1244, 0.375, 0.15, 0.02
1245, 0.375, 0.175, 0
1246, 0.375, 0.175, 0.02
1247, 0.375, 0.2, 0
1248, 0.375, 0.2, 0.02
1249, 0.375, 0.225, 0
1250, 0.375, 0.225, 0.02
1251, 0.375, 0.25, 0
1252, 0.375, 0.25, 0.02
1253, 0.375, 0.275, 0
1254, 0.375, 0.275, 0.02
1255, 0.375, 0.3, 0
1256, 0.375, 0.3, 0.02
1257, 0.375, 0.325, 0
1258, 0.375, 0.325, 0.02
1259, 0.375, 0.35, 0
1260, 0.375, 0.35, 0.02
1261, 0.375, 0.375, 0
1262, 0.375, 0.375, 0.02
1263, 0.375, 0.4, 0
1264, 0.375, 0.4, 0.02
1265, 0.375, 0.425, 0
1266, 0.375, 0.425, 0.02
1267, 0.375, 0.45, 0
1268, 0.375, 0.45, 0.02
1269, 0.375, 0.475, 0
1270, 0.375, 0.475, 0.02
1271, 0.375, 0.5, 0
1272, 0.375, 0.5, 0.02
1273, 0.375, 0.525, 0
1274, 0.375, 0.525, 0.02
1275, 0.375, 0.55, 0
1276, 0.375, 0.55, 0.02
1277, 0.375, 0.575, 0
1278, 0.375, 0.575, 0.02
1279, 0.375, 0.6, 0
1280, 0.375, 0.6, 0.02
1281, 0.375, 0.625, 0
1282, 0.375, 0.625, 0.02
1283, 0.375, 0.65, 0
1284, 0.375, 0.65, 0.02
1285, 0.375, 0.675, 0
1286, 0.375, 0.675, 0.02
1287, 0.375, 0.7, 0
1288, 0.375, 0.7, 0.02
1289, 0.375, 0.725, 0
1290, 0.375, 0.725, 0.02
1291, 0.375, 0.75, 0
1292, 0.375, 0.75, 0.02
1293, 0.375, 0.775, 0
1294, 0.375, 0.775, 0.02
1295, 0.375, 0.8, 0
1296, 0.375, 0.8, 0.02
1297, 0.375, 0.825, 0
1298, 0.375, 0.825, 0.02
1299, 0.375, 0.85, 0
1300, 0.375, 0.85, 0.02
1301, 0.375, 0.875, 0
1302, 0.375, 0.875, 0.02
1303, 0.375, 0.9, 0
1304, 0.375, 0.9, 0.02
1305, 0.375, 0.925, 0
1306, 0.375, 0.925, 0.02
1307, 0.375, 0.95, 0
1308, 0.375, 0.95, 0.02
1309, 0.375, 0.975, 0
1310, 0.375, 0.975, 0.02
1311, 0.375, 1, 0
1312, 0.375, 1, 0.02
1313, 0.4, 0, 0
1314, 0.4, 0, 0.02
1315, 0.4, 0.025, 0
1316, 0.4, 0.025, 0.02
1317, 0.4, 0.05, 0
1318, 0.4, 0.05, 0.02
1319, 0.4, 0.075, 0
1320, 0.4, 0.075, 0.02
1321, 0.4, 0.1, 0
1322, 0.4, 0.1, 0.02
1323, 0.4, 0.125, 0
1324, 0.4, 0.125, 0.02
1325, 0.4, 0.15, 0
1326, 0.4, 0.15, 0.02
1327, 0.4, 0.175, 0
1328, 0.4, 0.175, 0.02
1329, 0.4, 0.2, 0
1330, 0.4, 0.2, 0.02
1331, 0.4, 0.225, 0
1332, 0.4, 0.225, 0.02
1333, 0.4, 0.25, 0
1334, 0.4, 0.25, 0.02
1335, 0.4, 0.275, 0
1336, 0.4, 0.275, 0.02
1337, 0.4, 0.3, 0
1338, 0.4, 0.3, 0.02
1339, 0.4, 0.325, 0
1340, 0.4, 0.325, 0.02
1341, 0.4, 0.35, 0
1342, 0.4, 0.35, 0.02
1343, 0.4, 0.375, 0
1344, 0.4, 0.375, 0.02
1345, 0.4, 0.4, 0
1346, 0.4, 0.4, 0.02
1347, 0.4, 0.425, 0
1348, 0.4, 0.425, 0.02
1349, 0.4, 0.45, 0
1350, 0.4, 0.45, 0.02
1351, 0.4, 0.475, 0
1352, 0.4, 0.475, 0.02
1353, 0.4, 0.5, 0
1354, 0.4, 0.5, 0.02
1355, 0.4, 0.525, 0
1356, 0.4, 0.525, 0.02
1357, 0.4, 0.55, 0
1358, 0.4, 0.55, 0.02
1359, 0.4, 0.575, 0
1360, 0.4, 0.575, 0.02
1361, 0.4, 0.6, 0
1362, 0.4, 0.6, 0.02
1363, 0.4, 0.625, 0
1364, 0.4, 0.625, 0.02
1365, 0.4, 0.65, 0
1366, 0.4, 0.65, 0.02
1367, 0.4, 0.675, 0
1368, 0.4, 0.675, 0.02
1369, 0.4, 0.7, 0
1370, 0.4, 0.7, 0.02
1371, 0.4, 0.725, 0
1372, 0.4, 0.725, 0.02
1373, 0.4, 0.75, 0
1374, 0.4, 0.75, 0.02
1375, 0.4, 0.775, 0
1376, 0.4, 0.775, 0.02
1377, 0.4, 0.8, 0
1378, 0.4, 0.8, 0.02
1379, 0.4, 0.825, 0
1380, 0.4, 0.825, 0.02
1381, 0.4, 0.85, 0
1382, 0.4, 0.85, 0.02
1383, 0.4, 0.875, 0
1384, 0.4, 0.875, 0.02
1385, 0.4, 0.9, 0
1386, 0.4, 0.9, 0.02
1387, 0.4, 0.925, 0
1388, 0.4, 0.925, 0.02
1389, 0.4, 0.95, 0
1390, 0.4, 0.95, 0.02
1391, 0.4, 0.975, 0
1392, 0.4, 0.975, 0.02
1393, 0.4, 1, 0
1394, 0.4, 1, 0.02
1395, 0.425, 0, 0
1396, 0.425, 0, 0.02
1397, 0.425, 0.025, 0
1398, 0.425, 0.025, 0.02
1399, 0.425, 0.05, 0
1400, 0.425, 0.05, 0.02
1401, 0.425, 0.075, 0
1402, 0.425, 0.075, 0.02
1403, 0.425, 0.1, 0
1404, 0.425, 0.1, 0.02
1405, 0.425, 0.125, 0
1406, 0.425, 0.125, 0.02
1407, 0.425, 0.15, 0
1408, 0.425, 0.15, 0.02
1409, 0.425, 0.175, 0
1410, 0.425, 0.175, 0.02
1411, 0.425, 0.2, 0
1412, 0.425, 0.2, 0.02
1413, 0.425, 0.225, 0
1414, 0.425, 0.225, 0.02
1415, 0.425, 0.25, 0
1416, 0.425, 0.25, 0.02
1417, 0.425, 0.275, 0
1418, 0.425, 0.275, 0.02
1419, 0.425, 0.3, 0
1420, 0.425, 0.3, 0.02
1421, 0.425, 0.325, 0
1422, 0.425, 0.325, 0.02
1423, 0.425, 0.35, 0
1424, 0.425, 0.35, 0.02
1425, 0.425, 0.375, 0
1426, 0.425, 0.375, 0.02
1427, 0.425, 0.4, 0
1428, 0.425, 0.4, 0.02
1429, 0.425, 0.425, 0
1430, 0.425, 0.425, 0.02
1431, 0.425, 0.45, 0
1432, 0.425, 0.45, 0.02
1433, 0.425, 0.475, 0
1434, 0.425, 0.475, 0.02
1435, 0.425, 0.5, 0
1436, 0.425, 0.5, 0.02
1437, 0.425, 0.525, 0
1438, 0.425, 0.525, 0.02
1439, 0.425, 0.55, 0
1440, 0.425, 0.55, 0.02
1441, 0.425, 0.575, 0
1442, 0.425, 0.575, 0.02
1443, 0.425, 0.6, 0
1444, 0.425, 0.6, 0.02
1445, 0.425, 0.625, 0
1446, 0.425, 0.625, 0.02
1447, 0.425, 0.65, 0
1448, 0.425, 0.65, 0.02
1449, 0.425, 0.675, 0
1450, 0.425, 0.675, 0.02
1451, 0.425, 0.7, 0
1452, 0.425, 0.7, 0.02
1453, 0.425, 0.725, 0
1454, 0.425, 0.725, 0.02
1455, 0.425, 0.75, 0
1456, 0.425, 0.75, 0.02
1457, 0.425, 0.775, 0
1458, 0.425, 0.775, 0.02
1459, 0.425, 0.8, 0
1460, 0.425, 0.8, 0.02
1461, 0.425, 0.825, 0
1462, 0.425, 0.825, 0.02
1463, 0.425, 0.85, 0
1464, 0.425, 0.85, 0.02
1465, 0.425, 0.875, 0
1466, 0.425, 0.875, 0.02
1467, 0.425, 0.9, 0
1468, 0.425, 0.9, 0.02
1469, 0.425, 0.925, 0
1470, 0.425, 0.925, 0.02
1471, 0.425, 0.95, 0
1472, 0.425, 0.95, 0.02
1473, 0.425, 0.975, 0
1474, 0.425, 0.975, 0.02
1475, 0.425, 1, 0
1476, 0.425, 1, 0.02
1477, 0.45, 0, 0
1478, 0.45, 0, 0.02
1479, 0.45, 0.025, 0
1480, 0.45, 0.025, 0.02
1481, 0.45, 0.05, 0
1482, 0.45, 0.05, 0.02
1483, 0.45, 0.075, 0
1484, 0.45, 0.075, 0.02
1485, 0.45, 0.1, 0
1486, 0.45, 0.1, 0.02
1487, 0.45, 0.125, 0
1488, 0.45, 0.125, 0.02
1489, 0.45, 0.15, 0
1490, 0.45, 0.15, 0.02
1491, 0.45, 0.175, 0
1492, 0.45, 0.175, 0.02
1493, 0.45, 0.2, 0
1494, 0.45, 0.2, 0.02
1495, 0.45, 0.225, 0
1496, 0.45, 0.225, 0.02
1497, 0.45, 0.25, 0
1498, 0.45, 0.25, 0.02
1499, 0.45, 0.275, 0
1500, 0.45, 0.275, 0.02
1501, 0.45, 0.3, 0
1502, 0.45, 0.3, 0.02
1503, 0.45, 0.325, 0
1504, 0.45, 0.325, 0.02
1505, 0.45, 0.35, 0
1506, 0.45, 0.35, 0.02
1507, 0.45, 0.375, 0
1508, 0.45, 0.375, 0.02
1509, 0.45, 0.4, 0
1510, 0.45, 0.4, 0.02
1511, 0.45, 0.425, 0
1512, 0.45, 0.425, 0.02
1513, 0.45, 0.45, 0
1514, 0.45, 0.45, 0.02
1515, 0.45, 0.475, 0
1516, 0.45, 0.475, 0.02
1517, 0.45, 0.5, 0
1518, 0.45, 0.5, 0.02
1519, 0.45, 0.525, 0
1520, 0.45, 0.525, 0.02
1521, 0.45, 0.55, 0
1522, 0.45, 0.55, 0.02
1523, 0.45, 0.575, 0
1524, 0.45, 0.575, 0.02
1525, 0.45, 0.6, 0
1526, 0.45, 0.6, 0.02
1527, 0.45, 0.625, 0
1528, 0.45, 0.625, 0.02
1529, 0.45, 0.65, 0
1530, 0.45, 0.65, 0.02
1531, 0.45, 0.675, 0
1532, 0.45, 0.675, 0.02
1533, 0.45, 0.7, 0
1534, 0.45, 0.7, 0.02
1535, 0.45, 0.725, 0
1536, 0.45, 0.725, 0.02
1537, 0.45, 0.75, 0
1538, 0.45, 0.75, 0.02
1539, 0.45, 0.775, 0
1540, 0.45, 0.775, 0.02
1541, 0.45, 0.8, 0
1542, 0.45, 0.8, 0.02
1543, 0.45, 0.825, 0
1544, 0.45, 0.825, 0.02
1545, 0.45, 0.85, 0
1546, 0.45, 0.85, 0.02
1547, 0.45, 0.875, 0
1548, 0.45, 0.875, 0.02
1549, 0.45, 0.9, 0
1550, 0.45, 0.9, 0.02
1551, 0.45, 0.925, 0
1552, 0.45, 0.925, 0.02
1553, 0.45, 0.95, 0
1554, 0.45, 0.95, 0.02
1555, 0.45, 0.975, 0
1556, 0.45, 0.975, 0.02
1557, 0.45, 1, 0
1558, 0.45, 1, 0.02
1559, 0.475, 0, 0
1560, 0.475, 0, 0.02
1561, 0.475, 0.025, 0
1562, 0.475, 0.025, 0.02
1563, 0.475, 0.05, 0
1564, 0.475, 0.05, 0.02
1565, 0.475, 0.075, 0
1566, 0.475, 0.075, 0.02
1567, 0.475, 0.1, 0
1568, 0.475, 0.1, 0.02
1569, 0.475, 0.125, 0
1570, 0.475, 0.125, 0.02
1571, 0.475, 0.15, 0
1572, 0.475, 0.15, 0.02
1573, 0.475, 0.175, 0
1574, 0.475, 0.175, 0.02
1575, 0.475, 0.2, 0
1576, 0.475, 0.2, 0.02
1577, 0.475, 0.225, 0
1578, 0.475, 0.225, 0.02
1579, 0.475, 0.25, 0
1580, 0.475, 0.25, 0.02
1581, 0.475, 0.275, 0
1582, 0.475, 0.275, 0.02
1583, 0.475, 0.3, 0
1584, 0.475, 0.3, 0.02
1585, 0.475, 0.325, 0
1586, 0.475, 0.325, 0.02
1587, 0.475, 0.35, 0
1588, 0.475, 0.35, 0.02
1589, 0.475, 0.375, 0
1590, 0.475, 0.375, 0.02
1591, 0.475, 0.4, 0
1592, 0.475, 0.4, 0.02
1593, 0.475, 0.425, 0
1594, 0.475, 0.425, 0.02
1595, 0.475, 0.45, 0
1596, 0.475, 0.45, 0.02
1597, 0.475, 0.475, 0
1598, 0.475, 0.475, 0.02
1599, 0.475, 0.5, 0
1600, 0.475, 0.5, 0.02
1601, 0.475, 0.525, 0
1602, 0.475, 0.525, 0.02
1603, 0.475, 0.55, 0
1604, 0.475, 0.55, 0.02
1605, 0.475, 0.575, 0
1606, 0.475, 0.575, 0.02
1607, 0.475, 0.6, 0
1608, 0.475, 0.6, 0.02
1609, 0.475, 0.625, 0
1610, 0.475, 0.625, 0.02
1611, 0.475, 0.65, 0
1612, 0.475, 0.65, 0.02
1613, 0.475, 0.675, 0
1614, 0.475, 0.675, 0.02
1615, 0.475, 0.7, 0
1616, 0.475, 0.7, 0.02
1617, 0.475, 0.725, 0
1618, 0.475, 0.725, 0.02
1619, 0.475, 0.75, 0
1620, 0.475, 0.75, 0.02
1621, 0.475, 0.775, 0
1622, 0.475, 0.775, 0.02
1623, 0.475, 0.8, 0
1624, 0.475, 0.8, 0.02
1625, 0.475, 0.825, 0
1626, 0.475, 0.825, 0.02
1627, 0.475, 0.85, 0
1628, 0.475, 0.85, 0.02
1629, 0.475, 0.875, 0
1630, 0.475, 0.875, 0.02
1631, 0.475, 0.9, 0
1632, 0.475, 0.9, 0.02
1633, 0.475, 0.925, 0
1634, 0.475, 0.925, 0.02
1635, 0.475, 0.95, 0
1636, 0.475, 0.95, 0.02
1637, 0.475, 0.975, 0
1638, 0.475, 0.975, 0.02
1639, 0.475, 1, 0
1640, 0.475, 1, 0.02
1641, 0.5, 0, 0
1642, 0.5, 0, 0.02
1643, 0.5, 0.025, 0
1644, 0.5, 0.025, 0.02
1645, 0.5, 0.05, 0
1646, 0.5, 0.05, 0.02
1647, 0.5, 0.075, 0
1648, 0.5, 0.075, 0.02
1649, 0.5, 0.1, 0
1650, 0.5, 0.1, 0.02
1651, 0.5, 0.125, 0
1652, 0.5, 0.125, 0.02
1653, 0.5, 0.15, 0
1654, 0.5, 0.15, 0.02
1655, 0.5, 0.175, 0
1656, 0.5, 0.175, 0.02
1657, 0.5, 0.2, 0
1658, 0.5, 0.2, 0.02
1659, 0.5, 0.225, 0
1660, 0.5, 0.225, 0.02
1661, 0.5, 0.25, 0
1662, 0.5, 0.25, 0.02
1663, 0.5, 0.275, 0
1664, 0.5, 0.275, 0.02
1665, 0.5, 0.3, 0
1666, 0.5, 0.3, 0.02
1667, 0.5, 0.325, 0
1668, 0.5, 0.325, 0.02
1669, 0.5, 0.35, 0
1670, 0.5, 0.35, 0.02
1671, 0.5, 0.375, 0
1672, 0.5, 0.375, 0.02
1673, 0.5, 0.4, 0
1674, 0.5, 0.4, 0.02
1675, 0.5, 0.425, 0
1676, 0.5, 0.425, 0.02
1677, 0.5, 0.45, 0
1678, 0.5, 0.45, 0.02
1679, 0.5, 0.475, 0
1680, 0.5, 0.475, 0.02
1681, 0.5, 0.5, 0
1682, 0.5, 0.5, 0.02
1683, 0.5, 0.525, 0
1684, 0.5, 0.525, 0.02
1685, 0.5, 0.55, 0
1686, 0.5, 0.55, 0.02
1687, 0.5, 0.575, 0
1688, 0.5, 0.575, 0.02
1689, 0.5, 0.6, 0
1690, 0.5, 0.6, 0.02
1691, 0.5, 0.625, 0
1692, 0.5, 0.625, 0.02
1693, 0.5, 0.65, 0
1694, 0.5, 0.65, 0.02
1695, 0.5, 0.675, 0
1696, 0.5, 0.675, 0.02
1697, 0.5, 0.7, 0
1698, 0.5, 0.7, 0.02
1699, 0.5, 0.725, 0
1700, 0.5, 0.725, 0.02
1701, 0.5, 0.75, 0
1702, 0.5, 0.75, 0.02
1703, 0.5, 0.775, 0
1704, 0.5, 0.775, 0.02
1705, 0.5, 0.8, 0
1706, 0.5, 0.8, 0.02
1707, 0.5, 0.825, 0
1708, 0.5, 0.825, 0.02
1709, 0.5, 0.85, 0
1710, 0.5, 0.85, 0.02
1711, 0.5, 0.875, 0
1712, 0.5, 0.875, 0.02
1713, 0.5, 0.9, 0
1714, 0.5, 0.9, 0.02
1715, 0.5, 0.925, 0
1716, 0.5, 0.925, 0.02
1717, 0.5, 0.95, 0
1718, 0.5, 0.95, 0.02
1719, 0.5, 0.975, 0
1720, 0.5, 0.975, 0.02
1721, 0.5, 1, 0
1722, 0.5, 1, 0.02
1723, 0.525, 0, 0
1724, 0.525, 0, 0.02
1725, 0.525, 0.025, 0
1726, 0.525, 0.025, 0.02
1727, 0.525, 0.05, 0
1728, 0.525, 0.05, 0.02
1729, 0.525, 0.075, 0
1730, 0.525, 0.075, 0.02
1731, 0.525, 0.1, 0
1732, 0.525, 0.1, 0.02
1733, 0.525, 0.125, 0
1734, 0.525, 0.125, 0.02
1735, 0.525, 0.15, 0
1736, 0.525, 0.15, 0.02
1737, 0.525, 0.175, 0
1738, 0.525, 0.175, 0.02
1739, 0.525, 0.2, 0
1740, 0.525, 0.2, 0.02
1741, 0.525, 0.225, 0
1742, 0.525, 0.225, 0.02
1743, 0.525, 0.25, 0
1744, 0.525, 0.25, 0.02
1745, 0.525, 0.275, 0
1746, 0.525, 0.275, 0.02
1747, 0.525, 0.3, 0
1748, 0.525, 0.3, 0.02
1749, 0.525, 0.325, 0
1750, 0.525, 0.325, 0.02
1751, 0.525, 0.35, 0
1752, 0.525, 0.35, 0.02
1753, 0.525, 0.375, 0
1754, 0.525, 0.375, 0.02
1755, 0.525, 0.4, 0
1756, 0.525, 0.4, 0.02
1757, 0.525, 0.425, 0
1758, 0.525, 0.425, 0.02
1759, 0.525, 0.45, 0
1760, 0.525, 0.45, 0.02
1761, 0.525, 0.475, 0
1762, 0.525, 0.475, 0.02
1763, 0.525, 0.5, 0
1764, 0.525, 0.5, 0.02
1765, 0.525, 0.525, 0
1766, 0.525, 0.525, 0.02
1767, 0.525, 0.55, 0
1768, 0.525, 0.55, 0.02
1769, 0.525, 0.575, 0
1770, 0.525, 0.575, 0.02
1771, 0.525, 0.6, 0
1772, 0.525, 0.6, 0.02
1773, 0.525, 0.625, 0
1774, 0.525, 0.625, 0.02
1775, 0.525, 0.65, 0
1776, 0.525, 0.65, 0.02
1777, 0.525, 0.675, 0
1778, 0.525, 0.675, 0.02
1779, 0.525, 0.7, 0
1780, 0.525, 0.7, 0.02
1781, 0.525, 0.725, 0
1782, 0.525, 0.725, 0.02
1783, 0.525, 0.75, 0
1784, 0.525, 0.75, 0.02
1785, 0.525, 0.775, 0
1786, 0.525, 0.775, 0.02
1787, 0.525, 0.8, 0
1788, 0.525, 0.8, 0.02
1789, 0.525, 0.825, 0
1790, 0.525, 0.825, 0.02
1791, 0.525, 0.85, 0
1792, 0.525, 0.85, 0.02
1793, 0.525, 0.875, 0
1794, 0.525, 0.875, 0.02
1795, 0.525, 0.9, 0
1796, 0.525, 0.9, 0.02
1797, 0.525, 0.925, 0
1798, 0.525, 0.925, 0.02
1799, 0.525, 0.95, 0
1800, 0.525, 0.95, 0.02
1801, 0.525, 0.975, 0
1802, 0.525, 0.975, 0.02
1803, 0.525, 1, 0
1804, 0.525, 1, 0.02
1805, 0.55, 0, 0
1806, 0.55, 0, 0.02
1807, 0.55, 0.025, 0
1808, 0.55, 0.025, 0.02
1809, 0.55, 0.05, 0
1810, 0.55, 0.05, 0.02
1811, 0.55, 0.075, 0
1812, 0.55, 0.075, 0.02
1813, 0.55, 0.1, 0
1814, 0.55, 0.1, 0.02
1815, 0.55, 0.125, 0
1816, 0.55, 0.125, 0.02
1817, 0.55, 0.15, 0
1818, 0.55, 0.15, 0.02
1819, 0.55, 0.175, 0
1820, 0.55, 0.175, 0.02
1821, 0.55, 0.2, 0
1822, 0.55, 0.2, 0.02
1823, 0.55, 0.225, 0
1824, 0.55, 0.225, 0.02
1825, 0.55, 0.25, 0
1826, 0.55, 0.25, 0.02
1827, 0.55, 0.275, 0
1828, 0.55, 0.275, 0.02
1829, 0.55, 0.3, 0
1830, 0.55, 0.3, 0.02
1831, 0.55, 0.325, 0
1832, 0.55, 0.325, 0.02
1833, 0.55, 0.35, 0
1834, 0.55, 0.35, 0.02
1835, 0.55, 0.375, 0
1836, 0.55, 0.375, 0.02
1837, 0.55, 0.4, 0
1838, 0.55, 0.4, 0.02
1839, 0.55, 0.425, 0
1840, 0.55, 0.425, 0.02
1841, 0.55, 0.45, 0
1842, 0.55, 0.45, 0.02
1843, 0.55, 0.475, 0
1844, 0.55, 0.475, 0.02
1845, 0.55, 0.5, 0
1846, 0.55, 0.5, 0.02
1847, 0.55, 0.525, 0
1848, 0.55, 0.525, 0.02
1849, 0.55, 0.55, 0
1850, 0.55, 0.55, 0.02
1851, 0.55, 0.575, 0
1852, 0.55, 0.575, 0.02
1853, 0.55, 0.6, 0
1854, 0.55, 0.6, 0.02
1855, 0.55, 0.625, 0
1856, 0.55, 0.625, 0.02
1857, 0.55, 0.65, 0
1858, 0.55, 0.65, 0.02
1859, 0.55, 0.675, 0
1860, 0.55, 0.675, 0.02
1861, 0.55, 0.7, 0
1862, 0.55, 0.7, 0.02
1863, 0.55, 0.725, 0
1864, 0.55, 0.725, 0.02
1865, 0.55, 0.75, 0
1866, 0.55, 0.75, 0.02
1867, 0.55, 0.775, 0
1868, 0.55, 0.775, 0.02
1869, 0.55, 0.8, 0
1870, 0.55, 0.8, 0.02
1871, 0.55, 0.825, 0
1872, 0.55, 0.825, 0.02
1873, 0.55, 0.85, 0
1874, 0.55, 0.85, 0.02
1875, 0.55, 0.875, 0
1876, 0.55, 0.875, 0.02
1877, 0.55, 0.9, 0
1878, 0.55, 0.9, 0.02
1879, 0.55, 0.925, 0
1880, 0.55, 0.925, 0.02
1881, 0.55, 0.95, 0
1882, 0.55, 0.95, 0.02
1883, 0.55, 0.975, 0
1884, 0.55, 0.975, 0.02
1885, 0.55, 1, 0
1886, 0.55, 1, 0.02
1887, 0.575, 0, 0
1888, 0.575, 0, 0.02
1889, 0.575, 0.025, 0
1890, 0.575, 0.025, 0.02
1891, 0.575, 0.05, 0
1892, 0.575, 0.05, 0.02
1893, 0.575, 0.075, 0
1894, 0.575, 0.075, 0.02
1895, 0.575, 0.1, 0
1896, 0.575, 0.1, 0.02
1897, 0.575, 0.125, 0
1898, 0.575, 0.125, 0.02
1899, 0.575, 0.15, 0
1900, 0.575, 0.15, 0.02
1901, 0.575, 0.175, 0
1902, 0.575, 0.175, 0.02
1903, 0.575, 0.2, 0
1904, 0.575, 0.2, 0.02
1905, 0.575, 0.225, 0
1906, 0.575, 0.225, 0.02
1907, 0.575, 0.25, 0
1908, 0.575, 0.25, 0.02
1909, 0.575, 0.275, 0
1910, 0.575, 0.275, 0.02
1911, 0.575, 0.3, 0
1912, 0.575, 0.3, 0.02
1913, 0.575, 0.325, 0
1914, 0.575, 0.325, 0.02
1915, 0.575, 0.35, 0
1916, 0.575, 0.35, 0.02
1917, 0.575, 0.375, 0
1918, 0.575, 0.375, 0.02
1919, 0.575, 0.4, 0
1920, 0.575, 0.4, 0.02
1921, 0.575, 0.425, 0
1922, 0.575, 0.425, 0.02
1923, 0.575, 0.45, 0
1924, 0.575, 0.45, 0.02
1925, 0.575, 0.475, 0
1926, 0.575, 0.475, 0.02
1927, 0.575, 0.5, 0
1928, 0.575, 0.5, 0.02
1929, 0.575, 0.525, 0
1930, 0.575, 0.525, 0.02
1931, 0.575, 0.55, 0
1932, 0.575, 0.55, 0.02
1933, 0.575, 0.575, 0
1934, 0.575, 0.575, 0.02
1935, 0.575, 0.6, 0
1936, 0.575, 0.6, 0.02
1937, 0.575, 0.625, 0
1938, 0.575, 0.625, 0.02
1939, 0.575, 0.65, 0
1940, 0.575, 0.65, 0.02
1941, 0.575, 0.675, 0
1942, 0.575, 0.675, 0.02
1943, 0.575, 0.7, 0
1944, 0.575, 0.7, 0.02
1945, 0.575, 0.725, 0
1946, 0.575, 0.725, 0.02
1947, 0.575, 0.75, 0
1948, 0.575, 0.75, 0.02
1949, 0.575, 0.775, 0
1950, 0.575, 0.775, 0.02
1951, 0.575, 0.8, 0
1952, 0.575, 0.8, 0.02
1953, 0.575, 0.825, 0
1954, 0.575, 0.825, 0.02
1955, 0.575, 0.85, 0
1956, 0.575, 0.85, 0.02
1957, 0.575, 0.875, 0
1958, 0.575, 0.875, 0.02
1959, 0.575, 0.9, 0
1960, 0.575, 0.9, 0.02
1961, 0.575, 0.925, 0
1962, 0.575, 0.925, 0.02
1963, 0.575, 0.95, 0
1964, 0.575, 0.95, 0.02
1965, 0.575, 0.975, 0
1966, 0.575, 0.975, 0.02
1967, 0.575, 1, 0
1968, 0.575, 1, 0.02
1969, 0.6, 0, 0
1970, 0.6, 0, 0.02
1971, 0.6, 0.025, 0
1972, 0.6, 0.025, 0.02
1973, 0.6, 0.05, 0
1974, 0.6, 0.05, 0.02
1975, 0.6, 0.075, 0
1976, 0.6, 0.075, 0.02
1977, 0.6, 0.1, 0
1978, 0.6, 0.1, 0.02
1979, 0.6, 0.125, 0
1980, 0.6, 0.125, 0.02
1981, 0.6, 0.15, 0
1982, 0.6, 0.15, 0.02
1983, 0.6, 0.175, 0
1984, 0.6, 0.175, 0.02
1985, 0.6, 0.2, 0
1986, 0.6, 0.2, 0.02
1987, 0.6, 0.225, 0
1988, 0.6, 0.225, 0.02
1989, 0.6, 0.25, 0
1990, 0.6, 0.25, 0.02
1991, 0.6, 0.275, 0
1992, 0.6, 0.275, 0.02
1993, 0.6, 0.3, 0
1994, 0.6, 0.3, 0.02
1995, 0.6, 0.325, 0
1996, 0.6, 0.325, 0.02
1997, 0.6, 0.35, 0
1998, 0.6, 0.35, 0.02
1999, 0.6, 0.375, 0
2000, 0.6, 0.375, 0.02
2001, 0.6, 0.4, 0
2002, 0.6, 0.4, 0.02
2003, 0.6, 0.425, 0
2004, 0.6, 0.425, 0.02
2005, 0.6, 0.45, 0
2006, 0.6, 0.45, 0.02
2007, 0.6, 0.475, 0
2008, 0.6, 0.475, 0.02
2009, 0.6, 0.5, 0
2010, 0.6, 0.5, 0.02
2011, 0.6, 0.525, 0
2012, 0.6, 0.525, 0.02
2013, 0.6, 0.55, 0
2014, 0.6, 0.55, 0.02
2015, 0.6, 0.575, 0
2016, 0.6, 0.575, 0.02
2017, 0.6, 0.6, 0
2018, 0.6, 0.6, 0.02
2019, 0.6, 0.625, 0
2020, 0.6, 0.625, 0.02
2021, 0.6, 0.65, 0
2022, 0.6, 0.65, 0.02
2023, 0.6, 0.675, 0
2024, 0.6, 0.675, 0.02
2025, 0.6, 0.7, 0
2026, 0.6, 0.7, 0.02
2027, 0.6, 0.725, 0
2028, 0.6, 0.725, 0.02
2029, 0.6, 0.75, 0
2030, 0.6, 0.75, 0.02
2031, 0.6, 0.775, 0
2032, 0.6, 0.775, 0.02
2033, 0.6, 0.8, 0
2034, 0.6, 0.8, 0.02
2035, 0.6, 0.825, 0
2036, 0.6, 0.825, 0.02
2037, 0.6, 0.85, 0
2038, 0.6, 0.85, 0.02
2039, 0.6, 0.875, 0
2040, 0.6, 0.875, 0.02
2041, 0.6, 0.9, 0
2042, 0.6, 0.9, 0.02
2043, 0.6, 0.925, 0
2044, 0.6, 0.925, 0.02
2045, 0.6, 0.95, 0
2046, 0.6, 0.95, 0.02
2047, 0.6, 0.975, 0
2048, 0.6, 0.975, 0.02
2049, 0.6, 1, 0
2050, 0.6, 1, 0.02
*ELEMENT, TYPE=C3D8, ELSET=PLATE
1, 1, 83, 85, 3, 2, 84, 86, 4
2, 3, 85, 87, 5, 4, 86, 88, 6
3, 5, 87, 89, 7, 6, 88, 90, 8
4, 7, 89, 91, 9, 8, 90, 92, 10
5, 9, 91, 93, 11, 10, 92, 94, 12
6, 11, 93, 95, 13, 12, 94, 96, 14
7, 13, 95, 97, 15, 14, 96, 98, 16
8, 15, 97, 99, 17, 16, 98, 100, 18
9, 17, 99, 101, 19, 18, 100, 102, 20
10, 19, 101, 103, 21, 20, 102, 104, 22
11, 21, 103, 105, 23, 22, 104, 106, 24
12, 23, 105, 107, 25, 24, 106, 108, 26
13, 25, 107, 109, 27, 26, 108, 110, 28
14, 27, 109, 111, 29, 28, 110, 112, 30
15, 29, 111, 113, 31, 30, 112, 114, 32
16, 31, 113, 115, 33, 32, 114, 116, 34
17, 33, 115, 117, 35, 34, 116, 118, 36
18, 35, 117, 119, 37, 36, 118, 120, 38
19, 37, 119, 121, 39, 38, 120, 122, 40
20, 39, 121, 123, 41, 40, 122, 124, 42
21, 41, 123, 125, 43, 42, 124, 126, 44
22, 43, 125, 127, 45, 44, 126, 128, 46
23, 45, 127, 129, 47, 46, 128, 130, 48
24, 47, 129, 131, 49, 48, 130, 132, 50
25, 49, 131, 133, 51, 50, 132, 134, 52
26, 51, 133, 135, 53, 52, 134, 136, 54
27, 53, 135, 137, 55, 54, 136, 138, 56
28, 55, 137, 139, 57, 56, 138, 140, 58
29, 57, 139, 141, 59, 58, 140, 142, 60
30, 59, 141, 143, 61, 60, 142, 144, 62
31, 61, 143, 145, 63, 62, 144, 146, 64
32, 63, 145, 147, 65, 64, 146, 148, 66
33, 65, 147, 149, 67, 66, 148, 150, 68
34, 67, 149, 151, 69, 68, 150, 152, 70
35, 69, 151, 153, 71, 70, 152, 154, 72
36, 71, 153, 155, 73, 72, 154, 156, 74
37, 73, 155, 157, 75, 74, 156, 158, 76
38, 75, 157, 159, 77, 76, 158, 160, 78
39, 77, 159, 161, 79, 78, 160, 162, 80
40, 79, 161, 163, 81, 80, 162, 164, 82
41, 83, 165, 167, 85, 84, 166, 168, 86
42, 85, 167, 169, 87, 86, 168, 170, 88
43, 87, 169, 171, 89, 88, 170, 172, 90
44, 89, 171, 173, 91, 90, 172, 174, 92
45, 91, 173, 175, 93, 92, 174, 176, 94
46, 93, 175, 177, 95, 94, 176, 178, 96
47, 95, 177, 179, 97, 96, 178, 180, 98
48, 97, 179, 181, 99, 98, 180, 182, 100
49, 99, 181, 183, 101, 100, 182, 184, 102
50, 101, 183, 185, 103, 102, 184, 186, 104
51, 103, 185, 187, 105, 104, 186, 188, 106
52, 105, 187, 189, 107, 106, 188, 190, 108
53, 107, 189, 191, 109, 108, 190, 192, 110
54, 109, 191, 193, 111, 110, 192, 194, 112
55, 111, 193, 195, 113, 112, 194, 196, 114
56, 113, 195, 197, 115, 114, 196, 198, 116
57, 115, 197, 199, 117, 116, 198, 200, 118
58, 117, 199, 201, 119, 118, 200, 202, 120
59, 119, 201, 203, 121, 120, 202, 204, 122
60, 121, 203, 205, 123, 122, 204, 206, 124
61, 123, 205, 207, 125, 124, 206, 208, 126
62, 125, 207, 209, 127, 126, 208, 210, 128
63, 127, 209, 211, 129, 128, 210, 212, 130
64, 129, 211, 213, 131, 130, 212, 214, 132
65, 131, 213, 215, 133, 132, 214, 216, 134
66, 133, 215, 217, 135, 134, 216, 218, 136
67, 135, 217, 219, 137, 136, 218, 220, 138
68, 137, 219, 221, 139, 138, 220, 222, 140
69, 139, 221, 223, 141, 140, 222, 224, 142
70, 141, 223, 225, 143, 142, 224, 226, 144
71, 143, 225, 227, 145, 144, 226, 228, 146
72, 145, 227, 229, 147, 146, 228, 230, 148
73, 147, 229, 231, 149, 148, 230, 232, 150
74, 149, 231, 233, 151, 150, 232, 234, 152
75, 151, 233, 235, 153, 152, 234, 236, 154
76, 153, 235, 237, 155, 154, 236, 238, 156
77, 155, 237, 239, 157, 156, 238, 240, 158
78, 157, 239, 241, 159, 158, 240, 242, 160
79, 159, 241, 243, 161, 160, 242, 244, 162
80, 161, 243, 245, 163, 162, 244, 246, 164
81, 165, 247, 249, 167, 166, 248, 250, 168
82, 167, 249, 251, 169, 168, 250, 252, 170
83, 169, 251, 253, 171, 170, 252, 254, 172
84, 171, 253, 255, 173, 172, 254, 256, 174
85, 173, 255, 257, 175, 174, 256, 258, 176
86, 175, 257, 259, 177, 176, 258, 260, 178
87, 177, 259, 261, 179, 178, 260, 262, 180
88, 179, 261, 263, 181, 180, 262, 264, 182
89, 181, 263, 265, 183, 182, 264, 266, 184
90, 183, 265, 267, 185, 184, 266, 268, 186
91, 185, 267, 269, 187, 186, 268, 270, 188
92, 187, 269, 271, 189, 188, 270, 272, 190
93, 189, 271, 273, 191, 190, 272, 274, 192
94, 191, 273, 275, 193, 192, 274, 276, 194
95, 193, 275, 277, 195, 194, 276, 278, 196
96, 195, 277, 279, 197, 196, 278, 280, 198
97, 197, 279, 281, 199, 198, 280, 282, 200
98, 199, 281, 283, 201, 200, 282, 284, 202
99, 201, 283, 285, 203, 202, 284, 286, 204
100, 203, 285, 287, 205, 204, 286, 288, 206
101, 205, 287, 289, 207, 206, 288, 290, 208
102, 207, 289, 291, 209, 208, 290, 292, 210
103, 209, 291, 293, 211, 210, 292, 294, 212
104, 211, 293, 295, 213, 212, 294, 296, 214
105, 213, 295, 297, 215, 214, 296, 298, 216
106, 215, 297, 299, 217, 216, 298, 300, 218
107, 217, 299, 301, 219, 218, 300, 302, 220
108, 219, 301, 303, 221, 220, 302, 304, 222
109, 221, 303, 305, 223, 222, 304, 306, 224
110, 223, 305, 307, 225, 224, 306, 308, 226
111, 225, 307, 309, 227, 226, 308, 310, 228
112, 227, 309, 311, 229, 228, 310, 312, 230
113, 229, 311, 313, 231, 230, 312, 314, 232
114, 231, 313, 315, 233, 232, 314, 316, 234
115, 233, 315, 317, 235, 234, 316, 318, 236
116, 235, 317, 319, 237, 236, 318, 320, 238
117, 237, 319, 321, 239, 238, 320, 322, 240
118, 239, 321, 323, 241, 240, 322, 324, 242
119, 241, 323, 325, 243, 242, 324, 326, 244
120, 243, 325, 327, 245, 244, 326, 328, 246
121, 247, 329, 331, 249, 248, 330, 332, 250
122, 249, 331, 333, 251, 250, 332, 334, 252
123, 251, 333, 335, 253, 252, 334, 336, 254
124, 253, 335, 337, 255, 254, 336, 338, 256
125, 255, 337, 339, 257, 256, 338, 340, 258
126, 257, 339, 341, 259, 258, 340, 342, 260
127, 259, 341, 343, 261, 260, 342, 344, 262
128, 261, 343, 345, 263, 262, 344, 346, 264
129, 263, 345, 347, 265, 264, 346, 348, 266
130, 265, 347, 349, 267, 266, 348, 350, 268
131, 267, 349, 351, 269, 268, 350, 352, 270
132, 269, 351, 353, 271, 270, 352, 354, 272
133, 271, 353, 355, 273, 272, 354, 356, 274
134, 273, 355, 357, 275, 274, 356, 358, 276
135, 275, 357, 359, 277, 276, 358, 360, 278
136, 277, 359, 361, 279, 278, 360, 362, 280
137, 279, 361, 363, 281, 280, 362, 364, 282
138, 281, 363, 365, 283, 282, 364, 366, 284
139, 283, 365, 367, 285, 284, 366, 368, 286
140, 285, 367, 369, 287, 286, 368, 370, 288
141, 287, 369, 371, 289, 288, 370, 372, 290
142, 289, 371, 373, 291, 290, 372, 374, 292
143, 291, 373, 375, 293, 292, 374, 376, 294
144, 293, 375, 377, 295, 294, 376, 378, 296
145, 295, 377, 379, 297, 296, 378, 380, 298
146, 297, 379, 381, 299, 298, 380, 382, 300
147, 299, 381, 383, 301, 300, 382, 384, 302
148, 301, 383, 385, 303, 302, 384, 386, 304
149, 303, 385, 387, 305, 304, 386, 388, 306
150, 305, 387, 389, 307, 306, 388, 390, 308
151, 307, 389, 391, 309, 308, 390, 392, 310
152, 309, 391, 393, 311, 310, 392, 394, 312
153, 311, 393, 395, 313, 312, 394, 396, 314
154, 313, 395, 397, 315, 314, 396, 398, 316
155, 315, 397, 399, 317, 316, 398, 400, 318
156, 317, 399, 401, 319, 318, 400, 402, 320
157, 319, 401, 403, 321, 320, 402, 404, 322
158, 321, 403, 405, 323, 322, 404, 406, 324
159, 323, 405, 407, 325, 324, 406, 408, 326
160, 325, 407, 409, 327, 326, 408, 410, 328
161, 329, 411, 413, 331, 330, 412, 414, 332
162, 331, 413, 415, 333, 332, 414, 416, 334
163, 333, 415, 417, 335, 334, 416, 418, 336
164, 335, 417, 419, 337, 336, 418, 420, 338
165, 337, 419, 421, 339, 338, 420, 422, 340
166, 339, 421, 423, 341, 340, 422, 424, 342
167, 341, 423, 425, 343, 342, 424, 426, 344
168, 343, 425, 427, 345, 344, 426, 428, 346
169, 345, 427, 429, 347, 346, 428, 430, 348
170, 347, 429, 431, 349, 348, 430, 432, 350
171, 349, 431, 433, 351, 350, 432, 434, 352
172, 351, 433, 435, 353, 352, 434, 436, 354
173, 353, 435, 437, 355, 354, 436, 438, 356
174, 355, 437, 439, 357, 356, 438, 440, 358
175, 357, 439, 441, 359, 358, 440, 442, 360
176, 359, 441, 443, 361, 360, 442, 444, 362
177, 361, 443, 445, 363, 362, 444, 446, 364
178, 363, 445, 447, 365, 364, 446, 448, 366
179, 365, 447, 449, 367, 366, 448, 450, 368
180, 367, 449, 451, 369, 368, 450, 452, 370
181, 369, 451, 453, 371, 370, 452, 454, 372
182, 371, 453, 455, 373, 372, 454, 456, 374
183, 373, 455, 457, 375, 374, 456, 458, 376
184, 375, 457, 459, 377, 376, 458, 460, 378
185, 377, 459, 461, 379, 378, 460, 462, 380
186, 379, 461, 463, 381, 380, 462, 464, 382
187, 381, 463, 465, 383, 382, 464, 466, 384
188, 383, 465, 467, 385, 384, 466, 468, 386
189, 385, 467, 469, 387, 386, 468, 470, 388
190, 387, 469, 471, 389, 388, 470, 472, 390
191, 389, 471, 473, 391, 390, 472, 474, 392
192, 391, 473, 475, 393, 392, 474, 476, 394
193, 393, 475, 477, 395, 394, 476, 478, 396
194, 395, 477, 479, 397, 396, 478, 480, 398
195, 397, 479, 481, 399, 398, 480, 482, 400
196, 399, 481, 483, 401, 400, 482, 484, 402
197, 401, 483, 485, 403, 402, 484, 486, 404
198, 403, 485, 487, 405, 404, 486, 488, 406
199, 405, 487, 489, 407, 406, 488, 490, 408
200, 407, 489, 491, 409, 408, 490, 492, 410
201, 411, 493, 495, 413, 412, 494, 496, 414
202, 413, 495, 497, 415, 414, 496, 498, 416
203, 415, 497, 499, 417, 416, 498, 500, 418
204, 417, 499, 501, 419, 418, 500, 502, 420
205, 419, 501, 503, 421, 420, 502, 504, 422
206, 421, 503, 505, 423, 422, 504, 506, 424
207, 423, 505, 507, 425, 424, 506, 508, 426
208, 425, 507, 509, 427, 426, 508, 510, 428
209, 427, 509, 511, 429, 428, 510, 512, 430
210, 429, 511, 513, 431, 430, 512, 514, 432
211, 431, 513, 515, 433, 432, 514, 516, 434
212, 433, 515, 517, 435, 434, 516, 518, 436
213, 435, 517, 519, 437, 436, 518, 520, 438
214, 437, 519, 521, 439, 438, 520, 522, 440
215, 439, 521, 523, 441, 440, 522, 524, 442
216, 441, 523, 525, 443, 442, 524, 526, 444
217, 443, 525, 527, 445, 444, 526, 528, 446
218, 445, 527, 529, 447, 446, 528, 530, 448
219, 447, 529, 531, 449, 448, 530, 532, 450
220, 449, 531, 533, 451, 450, 532, 534, 452
221, 451, 533, 535, 453, 452, 534, 536, 454
222, 453, 535, 537, 455, 454, 536, 538, 456
223, 455, 537, 539, 457, 456, 538, 540, 458
224, 457, 539, 541, 459, 458, 540, 542, 460
225, 459, 541, 543, 461, 460, 542, 544, 462
226, 461, 543, 545, 463, 462, 544, 546, 464
227, 463, 545, 547, 465, 464, 546, 548, 466
228, 465, 547, 549, 467, 466, 548, 550, 468
229, 467, 549, 551, 469, 468, 550, 552, 470
230, 469, 551, 553, 471, 470, 552, 554, 472
231, 471, 553, 555, 473, 472, 554, 556, 474
232, 473, 555, 557, 475, 474, 556, 558, 476
233, 475, 557, 559, 477, 476, 558, 560, 478
234, 477, 559, 561, 479, 478, 560, 562, 480
235, 479, 561, 563, 481, 480, 562, 564, 482
236, 481, 563, 565, 483, 482, 564, 566, 484
237, 483, 565, 567, 485, 484, 566, 568, 486
238, 485, 567, 569, 487, 486, 568, 570, 488
239, 487, 569, 571, 489, 488, 570, 572, 490
240, 489, 571, 573, 491, 490, 572, 574, 492
241, 493, 575, 577, 495, 494, 576, 578, 496
242, 495, 577, 579, 497, 496, 578, 580, 498
243, 497, 579, 581, 499, 498, 580, 582, 500
244, 499, 581, 583, 501, 500, 582, 584, 502
245, 501, 583, 585, 503, 502, 584, 586, 504
246, 503, 585, 587, 505, 504, 586, 588, 506
247, 505, 587, 589, 507, 506, 588, 590, 508
248, 507, 589, 591, 509, 508, 590, 592, 510
249, 509, 591, 593, 511, 510, 592, 594, 512
250, 511, 593, 595, 513, 512, 594, 596, 514
251, 513, 595, 597, 515, 514, 596, 598, 516
252, 515, 597, 599, 517, 516, 598, 600, 518
253, 517, 599, 601, 519, 518, 600, 602, 520
254, 519, 601, 603, 521, 520, 602, 604, 522
255, 521, 603, 605, 523, 522, 604, 606, 524
256, 523, 605, 607, 525, 524, 606, 608, 526
257, 525, 607, 609, 527, 526, 608, 610, 528
258, 527, 609, 611, 529, 528, 610, 612, 530
259, 529, 611, 613, 531, 530, 612, 614, 532
260, 531, 613, 615, 533, 532, 614, 616, 534
261, 533, 615, 617, 535, 534, 616, 618, 536
262, 535, 617, 619, 537, 536, 618, 620, 538
263, 537, 619, 621, 539, 538, 620, 622, 540
264, 539, 621, 623, 541, 540, 622, 624, 542
265, 541, 623, 625, 543, 542, 624, 626, 544
266, 543, 625, 627, 545, 544, 626, 628, 546
267, 545, 627, 629, 547, 546, 628, 630, 548
268, 547, 629, 631, 549, 548, 630, 632, 550
269, 549, 631, 633, 551, 550, 632, 634, 552
270, 551, 633, 635, 553, 552, 634, 636, 554
271, 553, 635, 637, 555, 554, 636, 638, 556
272, 555, 637, 639, 557, 556, 638, 640, 558
273, 557, 639, 641, 559, 558, 640, 642, 560
274, 559, 641, 643, 561, 560, 642, 644, 562
275, 561, 643, 645, 563, 562, 644, 646, 564
276, 563, 645, 647, 565, 564, 646, 648, 566
277, 565, 647, 649, 567, 566, 648, 650, 568
278, 567, 649, 651, 569, 568, 650, 652, 570
279, 569, 651, 653, 571, 570, 652, 654, 572
280, 571, 653, 655, 573, 572, 654, 656, 574
281, 575, 657, 659, 577, 576, 658, 660, 578
282, 577, 659, 661, 579, 578, 660, 662, 580
283, 579, 661, 663, 581, 580, 662, 664, 582
284, 581, 663, 665, 583, 582, 664, 666, 584
285, 583, 665, 667, 585, 584, 666, 668, 586
286, 585, 667, 669, 587, 586, 668, 670, 588
287, 587, 669, 671, 589, 588, 670, 672, 590
288, 589, 671, 673, 591, 590, 672, 674, 592
289, 591, 673, 675, 593, 592, 674, 676, 594
290, 593, 675, 677, 595, 594, 676, 678, 596
291, 595, 677, 679, 597, 596, 678, 680, 598
292, 597, 679, 681, 599, 598, 680, 682, 600
293, 599, 681, 683, 601, 600, 682, 684, 602
294, 601, 683, 685, 603, 602, 684, 686, 604
295, 603, 685, 687, 605, 604, 686, 688, 606
296, 605, 687, 689, 607, 606, 688, 690, 608
297, 607, 689, 691, 609, 608, 690, 692, 610
298, 609, 691, 693, 611, 610, 692, 694, 612
299, 611, 693, 695, 613, 612, 694, 696, 614
300, 613, 695, 697, 615, 614, 696, 698, 616
301, 615, 697, 699, 617, 616, 698, 700, 618
302, 617, 699, 701, 619, 618, 700, 702, 620
303, 619, 701, 703, 621, 620, 702, 704, 622
304, 621, 703, 705, 623, 622, 704, 706, 624
305, 623, 705, 707, 625, 624, 706, 708, 626
306, 625, 707, 709, 627, 626, 708, 710, 628
307, 627, 709, 711, 629, 628, 710, 712, 630
308, 629, 711, 713, 631, 630, 712, 714, 632
309, 631, 713, 715, 633, 632, 714, 716, 634
310, 633, 715, 717, 635, 634, 716, 718, 636
311, 635, 717, 719, 637, 636, 718, 720, 638
312, 637, 719, 721, 639, 638, 720, 722, 640
313, 639, 721, 723, 641, 640, 722, 724, 642
314, 641, 723, 725, 643, 642, 724, 726, 644
315, 643, 725, 727, 645, 644, 726, 728, 646
316, 645, 727, 729, 647, 646, 728, 730, 648
317, 647, 729, 731, 649, 648, 730, 732, 650
318, 649, 731, 733, 651, 650, 732, 734, 652
319, 651, 733, 735, 653, 652, 734, 736, 654
320, 653, 735, 737, 655, 654, 736, 738, 656
321, 657, 739, 741, 659, 658, 740, 742, 660
322, 659, 741, 743, 661, 660, 742, 744, 662
323, 661, 743, 745, 663, 662, 744, 746, 664
324, 663, 745, 747, 665, 664, 746, 748, 666
325, 665, 747, 749, 667, 666, 748, 750, 668
326, 667, 749, 751, 669, 668, 750, 752, 670
327, 669, 751, 753, 671, 670, 752, 754, 672
328, 671, 753, 755, 673, 672, 754, 756, 674
329, 673, 755, 757, 675, 674, 756, 758, 676
330, 675, 757, 759, 677, 676, 758, 760, 678
331, 677, 759, 761, 679, 678, 760, 762, 680
332, 679, 761, 763, 681, 680, 762, 764, 682
333, 681, 763, 765, 683, 682, 764, 766, 684
334, 683, 765, 767, 685, 684, 766, 768, 686
335, 685, 767, 769, 687, 686, 768, 770, 688
336, 687, 769, 771, 689, 688, 770, 772, 690
337, 689, 771, 773, 691, 690, 772, 774, 692
338, 691, 773, 775, 693, 692, 774, 776, 694
339, 693, 775, 777, 695, 694, 776, 778, 696
340, 695, 777, 779, 697, 696, 778, 780, 698
341, 697, 779, 781, 699, 698, 780, 782, 700
342, 699, 781, 783, 701, 700, 782, 784, 702
343, 701, 783, 785, 703, 702, 784, 786, 704
344, 703, 785, 787, 705, 704, 786, 788, 706
345, 705, 787, 789, 707, 706, 788, 790, 708
346, 707, 789, 791, 709, 708, 790, 792, 710
347, 709, 791, 793, 711, 710, 792, 794, 712
348, 711, 793, 795, 713, 712, 794, 796, 714
349, 713, 795, 797, 715, 714, 796, 798, 716
350, 715, 797, 799, 717, 716, 798, 800, 718
351, 717, 799, 801, 719, 718, 800, 802, 720
352, 719, 801, 803, 721, 720, 802, 804, 722
353, 721, 803, 805, 723, 722, 804, 806, 724
354, 723, 805, 807, 725, 724, 806, 808, 726
355, 725, 807, 809, 727, 726, 808, 810, 728
356, 727, 809, 811, 729, 728, 810, 812, 730
357, 729, 811, 813, 731, 730, 812, 814, 732
358, 731, 813, 815, 733, 732, 814, 816, 734
359, 733, 815, 817, 735, 734, 816, 818, 736
360, 735, 817, 819, 737, 736, 818, 820, 738
361, 739, 821, 823, 741, 740, 822, 824, 742
362, 741, 823, 825, 743, 742, 824, 826, 744
363, 743, 825, 827, 745, 744, 826, 828, 746
364, 745, 827, 829, 747, 746, 828, 830, 748
365, 747, 829, 831, 749, 748, 830, 832, 750
366, 749, 831, 833, 751, 750, 832, 834, 752
367, 751, 833, 835, 753, 752, 834, 836, 754
368, 753, 835, 837, 755, 754, 836, 838, 756
369, 755, 837, 839, 757, 756, 838, 840, 758
370, 757, 839, 841, 759, 758, 840, 842, 760
371, 759, 841, 843, 761, 760, 842, 844, 762
372, 761, 843, 845, 763, 762, 844, 846, 764
373, 763, 845, 847, 765, 764, 846, 848, 766
374, 765, 847, 849, 767, 766, 848, 850, 768
375, 767, 849, 851, 769, 768, 850, 852, 770
376, 769, 851, 853, 771, 770, 852, 854, 772
377, 771, 853, 855, 773, 772, 854, 856, 774
378, 773, 855, 857, 775, 774, 856, 858, 776
379, 775, 857, 859, 777, 776, 858, 860, 778
380, 777, 859, 861, 779, 778, 860, 862, 780
381, 779, 861, 863, 781, 780, 862, 864, 782
382, 781, 863, 865, 783, 782, 864, 866, 784
383, 783, 865, 867, 785, 784, 866, 868, 786
384, 785, 867, 869, 787, 786, 868, 870, 788
385, 787, 869, 871, 789, 788, 870, 872, 790
386, 789, 871, 873, 791, 790, 872, 874, 792
387, 791, 873, 875, 793, 792, 874, 876, 794
388, 793, 875, 877, 795, 794, 876, 878, 796
389, 795, 877, 879, 797, 796, 878, 880, 798
390, 797, 879, 881, 799, 798, 880, 882, 800
391, 799, 881, 883, 801, 800, 882, 884, 802
392, 801, 883, 885, 803, 802, 884, 886, 804
393, 803, 885, 887, 805, 804, 886, 888, 806
394, 805, 887, 889, 807, 806, 888, 890, 808
395, 807, 889, 891, 809, 808, 890, 892, 810
396, 809, 891, 893, 811, 810, 892, 894, 812
397, 811, 893, 895, 813, 812, 894, 896, 814
398, 813, 895, 897, 815, 814, 896, 898, 816
399, 815, 897, 899, 817, 816, 898, 900, 818
400, 817, 899, 901, 819, 818, 900, 902, 820
401, 821, 903, 905, 823, 822, 904, 906, 824
402, 823, 905, 907, 825, 824, 906, 908, 826
403, 825, 907, 909, 827, 826, 908, 910, 828
404, 827, 909, 911, 829, 828, 910, 912, 830
405, 829, 911, 913, 831, 830, 912, 914, 832
406, 831, 913, 915, 833, 832, 914, 916, 834
407, 833, 915, 917, 835, 834, 916, 918, 836
408, 835, 917, 919, 837, 836, 918, 920, 838
409, 837, 919, 921, 839, 838, 920, 922, 840
410, 839, 921, 923, 841, 840, 922, 924, 842
411, 841, 923, 925, 843, 842, 924, 926, 844
412, 843, 925, 927, 845, 844, 926, 928, 846
413, 845, 927, 929, 847, 846, 928, 930, 848
414, 847, 929, 931, 849, 848, 930, 932, 850
415, 849, 931, 933, 851, 850, 932, 934, 852
416, 851, 933, 935, 853, 852, 934, 936, 854
417, 853, 935, 937, 855, 854, 936, 938, 856
418, 855, 937, 939, 857, 856, 938, 940, 858
419, 857, 939, 941, 859, 858, 940, 942, 860
420, 859, 941, 943, 861, 860, 942, 944, 862
421, 861, 943, 945, 863, 862, 944, 946, 864
422, 863, 945, 947, 865, 864, 946, 948, 866
423, 865, 947, 949, 867, 866, 948, 950, 868
424, 867, 949, 951, 869, 868, 950, 952, 870
425, 869, 951, 953, 871, 870, 952, 954, 872
426, 871, 953, 955, 873, 872, 954, 956, 874
427, 873, 955, 957, 875, 874, 956, 958, 876
428, 875, 957, 959, 877, 876, 958, 960, 878
429, 877, 959, 961, 879, 878, 960, 962, 880
430, 879, 961, 963, 881, 880, 962, 964, 882
431, 881, 963, 965, 883, 882, 964, 966, 884
432, 883, 965, 967, 885, 884, 966, 968, 886
433, 885, 967, 969, 887, 886, 968, 970, 888
434, 887, 969, 971, 889, 888, 970, 972, 890
435, 889, 971, 973, 891, 890, 972, 974, 892
436, 891, 973, 975, 893, 892, 974, 976, 894
437, 893, 975, 977, 895, 894, 976, 978, 896
438, 895, 977, 979, 897, 896, 978, 980, 898
439, 897, 979, 981, 899, 898, 980, 982, 900
440, 899, 981, 983, 901, 900, 982, 984, 902
441, 903, 985, 987, 905, 904, 986, 988, 906
442, 905, 987, 989, 907, 906, 988, 990, 908
443, 907, 989, 991, 909, 908, 990, 992, 910
444, 909, 991, 993, 911, 910, 992, 994, 912
445, 911, 993, 995, 913, 912, 994, 996, 914
446, 913, 995, 997, 915, 914, 996, 998, 916
447, 915, 997, 999, 917, 916, 998, 1000, 918
448, 917, 999, 1001, 919, 918, 1000, 1002, 920
449, 919, 1001, 1003, 921, 920, 1002, 1004, 922
450, 921, 1003, 1005, 923, 922, 1004, 1006, 924
451, 923, 1005, 1007, 925, 924, 1006, 1008, 926
452, 925, 1007, 1009, 927, 926, 1008, 1010, 928
453, 927, 1009, 1011, 929, 928, 1010, 1012, 930
454, 929, 1011, 1013, 931, 930, 1012, 1014, 932
455, 931, 1013, 1015, 933, 932, 1014, 1016, 934
456, 933, 1015, 1017, 935, 934, 1016, 1018, 936
457, 935, 1017, 1019, 937, 936, 1018, 1020, 938
458, 937, 1019, 1021, 939, 938, 1020, 1022, 940
459, 939, 1021, 1023, 941, 940, 1022, 1024, 942
460, 941, 1023, 1025, 943, 942, 1024, 1026, 944
461, 943, 1025, 1027, 945, 944, 1026, 1028, 946
462, 945, 1027, 1029, 947, 946, 1028, 1030, 948
463, 947, 1029, 1031, 949, 948, 1030, 1032, 950
464, 949, 1031, 1033, 951, 950, 1032, 1034, 952
465, 951, 1033, 1035, 953, 952, 1034, 1036, 954
466, 953, 1035, 1037, 955, 954, 1036, 1038, 956
467, 955, 1037, 1039, 957, 956, 1038, 1040, 958
468, 957, 1039, 1041, 959, 958, 1040, 1042, 960
469, 959, 1041, 1043, 961, 960, 1042, 1044, 962
470, 961, 1043, 1045, 963, 962, 1044, 1046, 964
471, 963, 1045, 1047, 965, 964, 1046, 1048, 966
472, 965, 1047, 1049, 967, 966, 1048, 1050, 968
473, 967, 1049, 1051, 969, 968, 1050, 1052, 970
474, 969, 1051, 1053, 971, 970, 1052, 1054, 972
475, 971, 1053, 1055, 973, 972, 1054, 1056, 974
476, 973, 1055, 1057, 975, 974, 1056, 1058, 976
477, 975, 1057, 1059, 977, 976, 1058, 1060, 978
478, 977, 1059, 1061, 979, 978, 1060, 1062, 980
479, 979, 1061, 1063, 981, 980, 1062, 1064, 982
480, 981, 1063, 1065, 983, 982, 1064, 1066, 984
481, 985, 1067, 1069, 987, 986, 1068, 1070, 988
482, 987, 1069, 1071, 989, 988, 1070, 1072, 990
483, 989, 1071, 1073, 991, 990, 1072, 1074, 992
484, 991, 1073, 1075, 993, 992, 1074, 1076, 994
485, 993, 1075, 1077, 995, 994, 1076, 1078, 996
486, 995, 1077, 1079, 997, 996, 1078, 1080, 998
487, 997, 1079, 1081, 999, 998, 1080, 1082, 1000
488, 999, 1081, 1083, 1001, 1000, 1082, 1084, 1002
489, 1001, 1083, 1085, 1003, 1002, 1084, 1086, 1004
490, 1003, 1085, 1087, 1005, 1004, 1086, 1088, 1006
491, 1005, 1087, 1089, 1007, 1006, 1088, 1090, 1008
492, 1007, 1089, 1091, 1009, 1008, 1090, 1092, 1010
493, 1009, 1091, 1093, 1011, 1010, 1092, 1094, 1012
494, 1011, 1093, 1095, 1013, 1012, 1094, 1096, 1014
495, 1013, 1095, 1097, 1015, 1014, 1096, 1098, 1016
496, 1015, 1097, 1099, 1017, 1016, 1098, 1100, 1018
497, 1017, 1099, 1101, 1019, 1018, 1100, 1102, 1020
498, 1019, 1101, 1103, 1021, 1020, 1102, 1104, 1022
499, 1021, 1103, 1105, 1023, 1022, 1104, 1106, 1024
500, 1023, 1105, 1107, 1025, 1024, 1106, 1108, 1026
501, 1025, 1107, 1109, 1027, 1026, 1108, 1110, 1028
502, 1027, 1109, 1111, 1029, 1028, 1110, 1112, 1030
503, 1029, 1111, 1113, 1031, 1030, 1112, 1114, 1032
504, 1031, 1113, 1115, 1033, 1032, 1114, 1116, 1034
505, 1033, 1115, 1117, 1035, 1034, 1116, 1118, 1036
506, 1035, 1117, 1119, 1037, 1036, 1118, 1120, 1038
507, 1037, 1119, 1121, 1039, 1038, 1120, 1122, 1040
508, 1039, 1121, 1123, 1041, 1040, 1122, 1124, 1042
509, 1041, 1123, 1125, 1043, 1042, 1124, 1126, 1044
510, 1043, 1125, 1127, 1045, 1044, 1126, 1128, 1046
511, 1045, 1127, 1129, 1047, 1046, 1128, 1130, 1048
512, 1047, 1129, 1131, 1049, 1048, 1130, 1132, 1050
513, 1049, 1131, 1133, 1051, 1050, 1132, 1134, 1052
514, 1051, 1133, 1135, 1053, 1052, 1134, 1136, 1054
515, 1053, 1135, 1137, 1055, 1054, 1136, 1138, 1056
516, 1055, 1137, 1139, 1057, 1056, 1138, 1140, 1058
517, 1057, 1139, 1141, 1059, 1058, 1140, 1142, 1060
518, 1059, 1141, 1143, 1061, 1060, 1142, 1144, 1062
519, 1061, 1143, 1145, 1063, 1062, 1144, 1146, 1064
520, 1063, 1145, 1147, 1065, 1064, 1146, 1148, 1066
521, 1067, 1149, 1151, 1069, 1068, 1150, 1152, 1070
522, 1069, 1151, 1153, 1071, 1070, 1152, 1154, 1072
523, 1071, 1153, 1155, 1073, 1072, 1154, 1156, 1074
524, 1073, 1155, 1157, 1075, 1074, 1156, 1158, 1076
525, 1075, 1157, 1159, 1077, 1076, 1158, 1160, 1078
526, 1077, 1159, 1161, 1079, 1078, 1160, 1162, 1080
527, 1079, 1161, 1163, 1081, 1080, 1162, 1164, 1082
528, 1081, 1163, 1165, 1083, 1082, 1164, 1166, 1084
529, 1083, 1165, 1167, 1085, 1084, 1166, 1168, 1086
530, 1085, 1167, 1169, 1087, 1086, 1168, 1170, 1088
531, 1087, 1169, 1171, 1089, 1088, 1170, 1172, 1090
532, 1089, 1171, 1173, 1091, 1090, 1172, 1174, 1092
533, 1091, 1173, 1175, 1093, 1092, 1174, 1176, 1094
534, 1093, 1175, 1177, 1095, 1094, 1176, 1178, 1096
535, 1095, 1177, 1179, 1097, 1096, 1178, 1180, 1098
536, 1097, 1179, 1181, 1099, 1098, 1180, 1182, 1100
537, 1099, 1181, 1183, 1101, 1100, 1182, 1184, 1102
538, 1101, 1183, 1185, 1103, 1102, 1184, 1186, 1104
539, 1103, 1185, 1187, 1105, 1104, 1186, 1188, 1106
540, 1105, 1187, 1189, 1107, 1106, 1188, 1190, 1108
541, 1107, 1189, 1191, 1109, 1108, 1190, 1192, 1110
542, 1109, 1191, 1193, 1111, 1110, 1192, 1194, 1112
543, 1111, 1193, 1195, 1113, 1112, 1194, 1196, 1114
544, 1113, 1195, 1197, 1115, 1114, 1196, 1198, 1116
545, 1115, 1197, 1199, 1117, 1116, 1198, 1200, 1118
546, 1117, 1199, 1201, 1119, 1118, 1200, 1202, 1120
547, 1119, 1201, 1203, 1121, 1120, 1202, 1204, 1122
548, 1121, 1203, 1205, 1123, 1122, 1204, 1206, 1124
549, 1123, 1205, 1207, 1125, 1124, 1206, 1208, 1126
550, 1125, 1207, 1209, 1127, 1126, 1208, 1210, 1128
551, 1127, 1209, 1211, 1129, 1128, 1210, 1212, 1130
552, 1129, 1211, 1213, 1131, 1130, 1212, 1214, 1132
553, 1131, 1213, 1215, 1133, 1132, 1214, 1216, 1134
554, 1133, 1215, 1217, 1135, 1134, 1216, 1218, 1136
555, 1135, 1217, 1219, 1137, 1136, 1218, 1220, 1138
556, 1137, 1219, 1221, 1139, 1138, 1220, 1222, 1140
557, 1139, 1221, 1223, 1141, 1140, 1222, 1224, 1142
558, 1141, 1223, 1225, 1143, 1142, 1224, 1226, 1144
559, 1143, 1225, 1227, 1145, 1144, 1226, 1228, 1146
560, 1145, 1227, 1229, 1147, 1146, 1228, 1230, 1148
561, 1149, 1231, 1233, 1151, 1150, 1232, 1234, 1152
562, 1151, 1233, 1235, 1153, 1152, 1234, 1236, 1154
563, 1153, 1235, 1237, 1155, 1154, 1236, 1238, 1156
564, 1155, 1237, 1239, 1157, 1156, 1238, 1240, 1158
565, 1157, 1239, 1241, 1159, 1158, 1240, 1242, 1160
566, 1159, 1241, 1243, 1161, 1160, 1242, 1244, 1162
567, 1161, 1243, 1245, 1163, 1162, 1244, 1246, 1164
568, 1163, 1245, 1247, 1165, 1164, 1246, 1248, 1166
569, 1165, 1247, 1249, 1167, 1166, 1248, 1250, 1168
570, 1167, 1249, 1251, 1169, 1168, 1250, 1252, 1170
571, 1169, 1251, 1253, 1171, 1170, 1252, 1254, 1172
572, 1171, 1253, 1255, 1173, 1172, 1254, 1256, 1174
573, 1173, 1255, 1257, 1175, 1174, 1256, 1258, 1176
574, 1175, 1257, 1259, 1177, 1176, 1258, 1260, 1178
575, 1177, 1259, 1261, 1179, 1178, 1260, 1262, 1180
576, 1179, 1261, 1263, 1181, 1180, 1262, 1264, 1182
577, 1181, 1263, 1265, 1183, 1182, 1264, 1266, 1184
578, 1183, 1265, 1267, 1185, 1184, 1266, 1268, 1186
579, 1185, 1267, 1269, 1187, 1186, 1268, 1270, 1188
580, 1187, 1269, 1271, 1189, 1188, 1270, 1272, 1190
581, 1189, 1271, 1273, 1191, 1190, 1272, 1274, 1192
582, 1191, 1273, 1275, 1193, 1192, 1274, 1276, 1194
583, 1193, 1275, 1277, 1195, 1194, 1276, 1278, 1196
584, 1195, 1277, 1279, 1197, 1196, 1278, 1280, 1198
585, 1197, 1279, 1281, 1199, 1198, 1280, 1282, 1200
586, 1199, 1281, 1283, 1201, 1200, 1282, 1284, 1202
587, 1201, 1283, 1285, 1203, 1202, 1284, 1286, 1204
588, 1203, 1285, 1287, 1205, 1204, 1286, 1288, 1206
589, 1205, 1287, 1289, 1207, 1206, 1288, 1290, 1208
590, 1207, 1289, 1291, 1209, 1208, 1290, 1292, 1210
591, 1209, 1291, 1293, 1211, 1210, 1292, 1294, 1212
592, 1211, 1293, 1295, 1213, 1212, 1294, 1296, 1214
593, 1213, 1295, 1297, 1215, 1214, 1296, 1298, 1216
594, 1215, 1297, 1299, 1217, 1216, 1298, 1300, 1218
595, 1217, 1299, 1301, 1219, 1218, 1300, 1302, 1220
596, 1219, 1301, 1303, 1221, 1220, 1302, 1304, 1222
597, 1221, 1303, 1305, 1223, 1222, 1304, 1306, 1224
598, 1223, 1305, 1307, 1225, 1224, 1306, 1308, 1226
599, 1225, 1307, 1309, 1227, 1226, 1308, 1310, 1228
600, 1227, 1309, 1311, 1229, 1228, 1310, 1312, 1230
601, 1231, 1313, 1315, 1233, 1232, 1314, 1316, 1234
602, 1233, 1315, 1317, 1235, 1234, 1316, 1318, 1236
603, 1235, 1317, 1319, 1237, 1236, 1318, 1320, 1238
604, 1237, 1319, 1321, 1239, 1238, 1320, 1322, 1240
605, 1239, 1321, 1323, 1241, 1240, 1322, 1324, 1242
606, 1241, 1323, 1325, 1243, 1242, 1324, 1326, 1244
607, 1243, 1325, 1327, 1245, 1244, 1326, 1328, 1246
608, 1245, 1327, 1329, 1247, 1246, 1328, 1330, 1248
609, 1247, 1329, 1331, 1249, 1248, 1330, 1332, 1250
610, 1249, 1331, 1333, 1251, 1250, 1332, 1334, 1252
611, 1251, 1333, 1335, 1253, 1252, 1334, 1336, 1254
612, 1253, 1335, 1337, 1255, 1254, 1336, 1338, 1256
613, 1255, 1337, 1339, 1257, 1256, 1338, 1340, 1258
614, 1257, 1339, 1341, 1259, 1258, 1340, 1342, 1260
615, 1259, 1341, 1343, 1261, 1260, 1342, 1344, 1262
616, 1261, 1343, 1345, 1263, 1262, 1344, 1346, 1264
617, 1263, 1345, 1347, 1265, 1264, 1346, 1348, 1266
618, 1265, 1347, 1349, 1267, 1266, 1348, 1350, 1268
619, 1267, 1349, 1351, 1269, 1268, 1350, 1352, 1270
620, 1269, 1351, 1353, 1271, 1270, 1352, 1354, 1272
621, 1271, 1353, 1355, 1273, 1272, 1354, 1356, 1274
622, 1273, 1355, 1357, 1275, 1274, 1356, 1358, 1276
623, 1275, 1357, 1359, 1277, 1276, 1358, 1360, 1278
624, 1277, 1359, 1361, 1279, 1278, 1360, 1362, 1280
625, 1279, 1361, 1363, 1281, 1280, 1362, 1364, 1282
626, 1281, 1363, 1365, 1283, 1282, 1364, 1366, 1284
627, 1283, 1365, 1367, 1285, 1284, 1366, 1368, 1286
628, 1285, 1367, 1369, 1287, 1286, 1368, 1370, 1288
629, 1287, 1369, 1371, 1289, 1288, 1370, 1372, 1290
630, 1289, 1371, 1373, 1291, 1290, 1372, 1374, 1292
631, 1291, 1373, 1375, 1293, 1292, 1374, 1376, 1294
632, 1293, 1375, 1377, 1295, 1294, 1376, 1378, 1296
633, 1295, 1377, 1379, 1297, 1296, 1378, 1380, 1298
634, 1297, 1379, 1381, 1299, 1298, 1380, 1382, 1300
635, 1299, 1381, 1383, 1301, 1300, 1382, 1384, 1302
636, 1301, 1383, 1385, 1303, 1302, 1384, 1386, 1304
637, 1303, 1385, 1387, 1305, 1304, 1386, 1388, 1306
638, 1305, 1387, 1389, 1307, 1306, 1388, 1390, 1308
639, 1307, 1389, 1391, 1309, 1308, 1390, 1392, 1310
640, 1309, 1391, 1393, 1311, 1310, 1392, 1394, 1312
641, 1313, 1395, 1397, 1315, 1314, 1396, 1398, 1316
642, 1315, 1397, 1399, 1317, 1316, 1398, 1400, 1318
643, 1317, 1399, 1401, 1319, 1318, 1400, 1402, 1320
644, 1319, 1401, 1403, 1321, 1320, 1402, 1404, 1322
645, 1321, 1403, 1405, 1323, 1322, 1404, 1406, 1324
646, 1323, 1405, 1407, 1325, 1324, 1406, 1408, 1326
647, 1325, 1407, 1409, 1327, 1326, 1408, 1410, 1328
648, 1327, 1409, 1411, 1329, 1328, 1410, 1412, 1330
649, 1329, 1411, 1413, 1331, 1330, 1412, 1414, 1332
650, 1331, 1413, 1415, 1333, 1332, 1414, 1416, 1334
651, 1333, 1415, 1417, 1335, 1334, 1416, 1418, 1336
652, 1335, 1417, 1419, 1337, 1336, 1418, 1420, 1338
653, 1337, 1419, 1421, 1339, 1338, 1420, 1422, 1340
654, 1339, 1421, 1423, 1341, 1340, 1422, 1424, 1342
655, 1341, 1423, 1425, 1343, 1342, 1424, 1426, 1344
656, 1343, 1425, 1427, 1345, 1344, 1426, 1428, 1346
657, 1345, 1427, 1429, 1347, 1346, 1428, 1430, 1348
658, 1347, 1429, 1431, 1349, 1348, 1430, 1432, 1350
659, 1349, 1431, 1433, 1351, 1350, 1432, 1434, 1352
660, 1351, 1433, 1435, 1353, 1352, 1434, 1436, 1354
661, 1353, 1435, 1437, 1355, 1354, 1436, 1438, 1356
662, 1355, 1437, 1439, 1357, 1356, 1438, 1440, 1358
663, 1357, 1439, 1441, 1359, 1358, 1440, 1442, 1360
664, 1359, 1441, 1443, 1361, 1360, 1442, 1444, 1362
665, 1361, 1443, 1445, 1363, 1362, 1444, 1446, 1364
666, 1363, 1445, 1447, 1365, 1364, 1446, 1448, 1366
667, 1365, 1447, 1449, 1367, 1366, 1448, 1450, 1368
668, 1367, 1449, 1451, 1369, 1368, 1450, 1452, 1370
669, 1369, 1451, 1453, 1371, 1370, 1452, 1454, 1372
670, 1371, 1453, 1455, 1373, 1372, 1454, 1456, 1374
671, 1373, 1455, 1457, 1375, 1374, 1456, 1458, 1376
672, 1375, 1457, 1459, 1377, 1376, 1458, 1460, 1378
673, 1377, 1459, 1461, 1379, 1378, 1460, 1462, 1380
674, 1379, 1461, 1463, 1381, 1380, 1462, 1464, 1382
675, 1381, 1463, 1465, 1383, 1382, 1464, 1466, 1384
676, 1383, 1465, 1467, 1385, 1384, 1466, 1468, 1386
677, 1385, 1467, 1469, 1387, 1386, 1468, 1470, 1388
678, 1387, 1469, 1471, 1389, 1388, 1470, 1472, 1390
679, 1389, 1471, 1473, 1391, 1390, 1472, 1474, 1392
680, 1391, 1473, 1475, 1393, 1392, 1474, 1476, 1394
681, 1395, 1477, 1479, 1397, 1396, 1478, 1480, 1398
682, 1397, 1479, 1481, 1399, 1398, 1480, 1482, 1400
683, 1399, 1481, 1483, 1401, 1400, 1482, 1484, 1402
684, 1401, 1483, 1485, 1403, 1402, 1484, 1486, 1404
685, 1403, 1485, 1487, 1405, 1404, 1486, 1488, 1406
686, 1405, 1487, 1489, 1407, 1406, 1488, 1490, 1408
687, 1407, 1489, 1491, 1409, 1408, 1490, 1492, 1410
688, 1409, 1491, 1493, 1411, 1410, 1492, 1494, 1412
689, 1411, 1493, 1495, 1413, 1412, 1494, 1496, 1414
690, 1413, 1495, 1497, 1415, 1414, 1496, 1498, 1416
691, 1415, 1497, 1499, 1417, 1416, 1498, 1500, 1418
692, 1417, 1499, 1501, 1419, 1418, 1500, 1502, 1420
693, 1419, 1501, 1503, 1421, 1420, 1502, 1504, 1422
694, 1421, 1503, 1505, 1423, 1422, 1504, 1506, 1424
695, 1423, 1505, 1507, 1425, 1424, 1506, 1508, 1426
696, 1425, 1507, 1509, 1427, 1426, 1508, 1510, 1428
697, 1427, 1509, 1511, 1429, 1428, 1510, 1512, 1430
698, 1429, 1511, 1513, 1431, 1430, 1512, 1514, 1432
699, 1431, 1513, 1515, 1433, 1432, 1514, 1516, 1434
700, 1433, 1515, 1517, 1435, 1434, 1516, 1518, 1436
701, 1435, 1517, 1519, 1437, 1436, 1518, 1520, 1438
702, 1437, 1519, 1521, 1439, 1438, 1520, 1522, 1440
703, 1439, 1521, 1523, 1441, 1440, 1522, 1524, 1442
704, 1441, 1523, 1525, 1443, 1442, 1524, 1526, 1444
705, 1443, 1525, 1527, 1445, 1444, 1526, 1528, 1446
706, 1445, 1527, 1529, 1447, 1446, 1528, 1530, 1448
707, 1447, 1529, 1531, 1449, 1448, 1530, 1532, 1450
708, 1449, 1531, 1533, 1451, 1450, 1532, 1534, 1452
709, 1451, 1533, 1535, 1453, 1452, 1534, 1536, 1454
710, 1453, 1535, 1537, 1455, 1454, 1536, 1538, 1456
711, 1455, 1537, 1539, 1457, 1456, 1538, 1540, 1458
712, 1457, 1539, 1541, 1459, 1458, 1540, 1542, 1460
713, 1459, 1541, 1543, 1461, 1460, 1542, 1544, 1462
714, 1461, 1543, 1545, 1463, 1462, 1544, 1546, 1464
715, 1463, 1545, 1547, 1465, 1464, 1546, 1548, 1466
716, 1465, 1547, 1549, 1467, 1466, 1548, 1550, 1468
717, 1467, 1549, 1551, 1469, 1468, 1550, 1552, 1470
718, 1469, 1551, 1553, 1471, 1470, 1552, 1554, 1472
719, 1471, 1553, 1555, 1473, 1472, 1554, 1556, 1474
720, 1473, 1555, 1557, 1475, 1474, 1556, 1558, 1476
721, 1477, 1559, 1561, 1479, 1478, 1560, 1562, 1480
722, 1479, 1561, 1563, 1481, 1480, 1562, 1564, 1482
723, 1481, 1563, 1565, 1483, 1482, 1564, 1566, 1484
724, 1483, 1565, 1567, 1485, 1484, 1566, 1568, 1486
725, 1485, 1567, 1569, 1487, 1486, 1568, 1570, 1488
726, 1487, 1569, 1571, 1489, 1488, 1570, 1572, 1490
727, 1489, 1571, 1573, 1491, 1490, 1572, 1574, 1492
728, 1491, 1573, 1575, 1493, 1492, 1574, 1576, 1494
729, 1493, 1575, 1577, 1495, 1494, 1576, 1578, 1496
730, 1495, 1577, 1579, 1497, 1496, 1578, 1580, 1498
731, 1497, 1579, 1581, 1499, 1498, 1580, 1582, 1500
732, 1499, 1581, 1583, 1501, 1500, 1582, 1584, 1502
733, 1501, 1583, 1585, 1503, 1502, 1584, 1586, 1504
734, 1503, 1585, 1587, 1505, 1504, 1586, 1588, 1506
735, 1505, 1587, 1589, 1507, 1506, 1588, 1590, 1508
736, 1507, 1589, 1591, 1509, 1508, 1590, 1592, 1510
737, 1509, 1591, 1593, 1511, 1510, 1592, 1594, 1512
738, 1511, 1593, 1595, 1513, 1512, 1594, 1596, 1514
739, 1513, 1595, 1597, 1515, 1514, 1596, 1598, 1516
740, 1515, 1597, 1599, 1517, 1516, 1598, 1600, 1518
741, 1517, 1599, 1601, 1519, 1518, 1600, 1602, 1520
742, 1519, 1601, 1603, 1521, 1520, 1602, 1604, 1522
743, 1521, 1603, 1605, 1523, 1522, 1604, 1606, 1524
744, 1523, 1605, 1607, 1525, 1524, 1606, 1608, 1526
745, 1525, 1607, 1609, 1527, 1526, 1608, 1610, 1528
746, 1527, 1609, 1611, 1529, 1528, 1610, 1612, 1530
747, 1529, 1611, 1613, 1531, 1530, 1612, 1614, 1532
748, 1531, 1613, 1615, 1533, 1532, 1614, 1616, 1534
749, 1533, 1615, 1617, 1535, 1534, 1616, 1618, 1536
750, 1535, 1617, 1619, 1537, 1536, 1618, 1620, 1538
751, 1537, 1619, 1621, 1539, 1538, 1620, 1622, 1540
752, 1539, 1621, 1623, 1541, 1540, 1622, 1624, 1542
753, 1541, 1623, 1625, 1543, 1542, 1624, 1626, 1544
754, 1543, 1625, 1627, 1545, 1544, 1626, 1628, 1546
755, 1545, 1627, 1629, 1547, 1546, 1628, 1630, 1548
756, 1547, 1629, 1631, 1549, 1548, 1630, 1632, 1550
757, 1549, 1631, 1633, 1551, 1550, 1632, 1634, 1552
758, 1551, 1633, 1635, 1553, 1552, 1634, 1636, 1554
759, 1553, 1635, 1637, 1555, 1554, 1636, 1638, 1556
760, 1555, 1637, 1639, 1557, 1556, 1638, 1640, 1558
761, 1559, 1641, 1643, 1561, 1560, 1642, 1644, 1562
762, 1561, 1643, 1645, 1563, 1562, 1644, 1646, 1564
763, 1563, 1645, 1647, 1565, 1564, 1646, 1648, 1566
764, 1565, 1647, 1649, 1567, 1566, 1648, 1650, 1568
765, 1567, 1649, 1651, 1569, 1568, 1650, 1652, 1570
766, 1569, 1651, 1653, 1571, 1570, 1652, 1654, 1572
767, 1571, 1653, 1655, 1573, 1572, 1654, 1656, 1574
768, 1573, 1655, 1657, 1575, 1574, 1656, 1658, 1576
769, 1575, 1657, 1659, 1577, 1576, 1658, 1660, 1578
770, 1577, 1659, 1661, 1579, 1578, 1660, 1662, 1580
771, 1579, 1661, 1663, 1581, 1580, 1662, 1664, 1582
772, 1581, 1663, 1665, 1583, 1582, 1664, 1666, 1584
773, 1583, 1665, 1667, 1585, 1584, 1666, 1668, 1586
774, 1585, 1667, 1669, 1587, 1586, 1668, 1670, 1588
775, 1587, 1669, 1671, 1589, 1588, 1670, 1672, 1590
776, 1589, 1671, 1673, 1591, 1590, 1672, 1674, 1592
777, 1591, 1673, 1675, 1593, 1592, 1674, 1676, 1594
778, 1593, 1675, 1677, 1595, 1594, 1676, 1678, 1596
779, 1595, 1677, 1679, 1597, 1596, 1678, 1680, 1598
780, 1597, 1679, 1681, 1599, 1598, 1680, 1682, 1600
781, 1599, 1681, 1683, 1601, 1600, 1682, 1684, 1602
782, 1601, 1683, 1685, 1603, 1602, 1684, 1686, 1604
783, 1603, 1685, 1687, 1605, 1604, 1686, 1688, 1606
784, 1605, 1687, 1689, 1607, 1606, 1688, 1690, 1608
785, 1607, 1689, 1691, 1609, 1608, 1690, 1692, 1610
786, 1609, 1691, 1693, 1611, 1610, 1692, 1694, 1612
787, 1611, 1693, 1695, 1613, 1612, 1694, 1696, 1614
788, 1613, 1695, 1697, 1615, 1614, 1696, 1698, 1616
789, 1615, 1697, 1699, 1617, 1616, 1698, 1700, 1618
790, 1617, 1699, 1701, 1619, 1618, 1700, 1702, 1620
791, 1619, 1701, 1703, 1621, 1620, 1702, 1704, 1622
792, 1621, 1703, 1705, 1623, 1622, 1704, 1706, 1624
793, 1623, 1705, 1707, 1625, 1624, 1706, 1708, 1626
794, 1625, 1707, 1709, 1627, 1626, 1708, 1710, 1628
795, 1627, 1709, 1711, 1629, 1628, 1710, 1712, 1630
796, 1629, 1711, 1713, 1631, 1630, 1712, 1714, 1632
797, 1631, 1713, 1715, 1633, 1632, 1714, 1716, 1634
798, 1633, 1715, 1717, 1635, 1634, 1716, 1718, 1636
799, 1635, 1717, 1719, 1637, 1636, 1718, 1720, 1638
800, 1637, 1719, 1721, 1639, 1638, 1720, 1722, 1640
801, 1641, 1723, 1725, 1643, 1642, 1724, 1726, 1644
802, 1643, 1725, 1727, 1645, 1644, 1726, 1728, 1646
803, 1645, 1727, 1729, 1647, 1646, 1728, 1730, 1648
804, 1647, 1729, 1731, 1649, 1648, 1730, 1732, 1650
805, 1649, 1731, 1733, 1651, 1650, 1732, 1734, 1652
806, 1651, 1733, 1735, 1653, 1652, 1734, 1736, 1654
807, 1653, 1735, 1737, 1655, 1654, 1736, 1738, 1656
808, 1655, 1737, 1739, 1657, 1656, 1738, 1740, 1658
809, 1657, 1739, 1741, 1659, 1658, 1740, 1742, 1660
810, 1659, 1741, 1743, 1661, 1660, 1742, 1744, 1662
811, 1661, 1743, 1745, 1663, 1662, 1744, 1746, 1664
812, 1663, 1745, 1747, 1665, 1664, 1746, 1748, 1666
813, 1665, 1747, 1749, 1667, 1666, 1748, 1750, 1668
814, 1667, 1749, 1751, 1669, 1668, 1750, 1752, 1670
815, 1669, 1751, 1753, 1671, 1670, 1752, 1754, 1672
816, 1671, 1753, 1755, 1673, 1672, 1754, 1756, 1674
817, 1673, 1755, 1757, 1675, 1674, 1756, 1758, 1676
818, 1675, 1757, 1759, 1677, 1676, 1758, 1760, 1678
819, 1677, 1759, 1761, 1679, 1678, 1760, 1762, 1680
820, 1679, 1761, 1763, 1681, 1680, 1762, 1764, 1682
821, 1681, 1763, 1765, 1683, 1682, 1764, 1766, 1684
822, 1683, 1765, 1767, 1685, 1684, 1766, 1768, 1686
823, 1685, 1767, 1769, 1687, 1686, 1768, 1770, 1688
824, 1687, 1769, 1771, 1689, 1688, 1770, 1772, 1690
825, 1689, 1771, 1773, 1691, 1690, 1772, 1774, 1692
826, 1691, 1773, 1775, 1693, 1692, 1774, 1776, 1694
827, 1693, 1775, 1777, 1695, 1694, 1776, 1778, 1696
828, 1695, 1777, 1779, 1697, 1696, 1778, 1780, 1698
829, 1697, 1779, 1781, 1699, 1698, 1780, 1782, 1700
830, 1699, 1781, 1783, 1701, 1700, 1782, 1784, 1702
831, 1701, 1783, 1785, 1703, 1702, 1784, 1786, 1704
832, 1703, 1785, 1787, 1705, 1704, 1786, 1788, 1706
833, 1705, 1787, 1789, 1707, 1706, 1788, 1790, 1708
834, 1707, 1789, 1791, 1709, 1708, 1790, 1792, 1710
835, 1709, 1791, 1793, 1711, 1710, 1792, 1794, 1712
836, 1711, 1793, 1795, 1713, 1712, 1794, 1796, 1714
837, 1713, 1795, 1797, 1715, 1714, 1796, 1798, 1716
838, 1715, 1797, 1799, 1717, 1716, 1798, 1800, 1718
839, 1717, 1799, 1801, 1719, 1718, 1800, 1802, 1720
840, 1719, 1801, 1803, 1721, 1720, 1802, 1804, 1722
841, 1723, 1805, 1807, 1725, 1724, 1806, 1808, 1726
842, 1725, 1807, 1809, 1727, 1726, 1808, 1810, 1728
843, 1727, 1809, 1811, 1729, 1728, 1810, 1812, 1730
844, 1729, 1811, 1813, 1731, 1730, 1812, 1814, 1732
845, 1731, 1813, 1815, 1733, 1732, 1814, 1816, 1734
846, 1733, 1815, 1817, 1735, 1734, 1816, 1818, 1736
847, 1735, 1817, 1819, 1737, 1736, 1818, 1820, 1738
848, 1737, 1819, 1821, 1739, 1738, 1820, 1822, 1740
849, 1739, 1821, 1823, 1741, 1740, 1822, 1824, 1742
850, 1741, 1823, 1825, 1743, 1742, 1824, 1826, 1744
851, 1743, 1825, 1827, 1745, 1744, 1826, 1828, 1746
852, 1745, 1827, 1829, 1747, 1746, 1828, 1830, 1748
853, 1747, 1829, 1831, 1749, 1748, 1830, 1832, 1750
854, 1749, 1831, 1833, 1751, 1750, 1832, 1834, 1752
855, 1751, 1833, 1835, 1753, 1752, 1834, 1836, 1754
856, 1753, 1835, 1837, 1755, 1754, 1836, 1838, 1756
857, 1755, 1837, 1839, 1757, 1756, 1838, 1840, 1758
858, 1757, 1839, 1841, 1759, 1758, 1840, 1842, 1760
859, 1759, 1841, 1843, 1761, 1760, 1842, 1844, 1762
860, 1761, 1843, 1845, 1763, 1762, 1844, 1846, 1764
861, 1763, 1845, 1847, 1765, 1764, 1846, 1848, 1766
862, 1765, 1847, 1849, 1767, 1766, 1848, 1850, 1768
863, 1767, 1849, 1851, 1769, 1768, 1850, 1852, 1770
864, 1769, 1851, 1853, 1771, 1770, 1852, 1854, 1772
865, 1771, 1853, 1855, 1773, 1772, 1854, 1856, 1774
866, 1773, 1855, 1857, 1775, 1774, 1856, 1858, 1776
867, 1775, 1857, 1859, 1777, 1776, 1858, 1860, 1778
868, 1777, 1859, 1861, 1779, 1778, 1860, 1862, 1780
869, 1779, 1861, 1863, 1781, 1780, 1862, 1864, 1782
870, 1781, 1863, 1865, 1783, 1782, 1864, 1866, 1784
871, 1783, 1865, 1867, 1785, 1784, 1866, 1868, 1786
872, 1785, 1867, 1869, 1787, 1786, 1868, 1870, 1788
873, 1787, 1869, 1871, 1789, 1788, 1870, 1872, 1790
874, 1789, 1871, 1873, 1791, 1790, 1872, 1874, 1792
875, 1791, 1873, 1875, 1793, 1792, 1874, 1876, 1794
876, 1793, 1875, 1877, 1795, 1794, 1876, 1878, 1796
877, 1795, 1877, 1879, 1797, 1796, 1878, 1880, 1798
878, 1797, 1879, 1881, 1799, 1798, 1880, 1882, 1800
879, 1799, 1881, 1883, 1801, 1800, 1882, 1884, 1802
880, 1801, 1883, 1885, 1803, 1802, 1884, 1886, 1804
881, 1805, 1887, 1889, 1807, 1806, 1888, 1890, 1808
882, 1807, 1889, 1891, 1809, 1808, 1890, 1892, 1810
883, 1809, 1891, 1893, 1811, 1810, 1892, 1894, 1812
884, 1811, 1893, 1895, 1813, 1812, 1894, 1896, 1814
885, 1813, 1895, 1897, 1815, 1814, 1896, 1898, 1816
886, 1815, 1897, 1899, 1817, 1816, 1898, 1900, 1818
887, 1817, 1899, 1901, 1819, 1818, 1900, 1902, 1820
888, 1819, 1901, 1903, 1821, 1820, 1902, 1904, 1822
889, 1821, 1903, 1905, 1823, 1822, 1904, 1906, 1824
890, 1823, 1905, 1907, 1825, 1824, 1906, 1908, 1826
891, 1825, 1907, 1909, 1827, 1826, 1908, 1910, 1828
892, 1827, 1909, 1911, 1829, 1828, 1910, 1912, 1830
893, 1829, 1911, 1913, 1831, 1830, 1912, 1914, 1832
894, 1831, 1913, 1915, 1833, 1832, 1914, 1916, 1834
895, 1833, 1915, 1917, 1835, 1834, 1916, 1918, 1836
896, 1835, 1917, 1919, 1837, 1836, 1918, 1920, 1838
897, 1837, 1919, 1921, 1839, 1838, 1920, 1922, 1840
898, 1839, 1921, 1923, 1841, 1840, 1922, 1924, 1842
899, 1841, 1923, 1925, 1843, 1842, 1924, 1926, 1844
900, 1843, 1925, 1927, 1845, 1844, 1926, 1928, 1846
901, 1845, 1927, 1929, 1847, 1846, 1928, 1930, 1848
902, 1847, 1929, 1931, 1849, 1848, 1930, 1932, 1850
903, 1849, 1931, 1933, 1851, 1850, 1932, 1934, 1852
904, 1851, 1933, 1935, 1853, 1852, 1934, 1936, 1854
905, 1853, 1935, 1937, 1855, 1854, 1936, 1938, 1856
906, 1855, 1937, 1939, 1857, 1856, 1938, 1940, 1858
907, 1857, 1939, 1941, 1859, 1858, 1940, 1942, 1860
908, 1859, 1941, 1943, 1861, 1860, 1942, 1944, 1862
909, 1861, 1943, 1945, 1863, 1862, 1944, 1946, 1864
910, 1863, 1945, 1947, 1865, 1864, 1946, 1948, 1866
911, 1865, 1947, 1949, 1867, 1866, 1948, 1950, 1868
912, 1867, 1949, 1951, 1869, 1868, 1950, 1952, 1870
913, 1869, 1951, 1953, 1871, 1870, 1952, 1954, 1872
914, 1871, 1953, 1955, 1873, 1872, 1954, 1956, 1874
915, 1873, 1955, 1957, 1875, 1874, 1956, 1958, 1876
916, 1875, 1957, 1959, 1877, 1876, 1958, 1960, 1878
917, 1877, 1959, 1961, 1879, 1878, 1960, 1962, 1880
918, 1879, 1961, 1963, 1881, 1880, 1962, 1964, 1882
919, 1881, 1963, 1965, 1883, 1882, 1964, 1966, 1884
920, 1883, 1965, 1967, 1885, 1884, 1966, 1968, 1886
921, 1887, 1969, 1971, 1889, 1888, 1970, 1972, 1890
922, 1889, 1971, 1973, 1891, 1890, 1972, 1974, 1892
923, 1891, 1973, 1975, 1893, 1892, 1974, 1976, 1894
924, 1893, 1975, 1977, 1895, 1894, 1976, 1978, 1896
925, 1895, 1977, 1979, 1897, 1896, 1978, 1980, 1898
926, 1897, 1979, 1981, 1899, 1898, 1980, 1982, 1900
927, 1899, 1981, 1983, 1901, 1900, 1982, 1984, 1902
928, 1901, 1983, 1985, 1903, 1902, 1984, 1986, 1904
929, 1903, 1985, 1987, 1905, 1904, 1986, 1988, 1906
930, 1905, 1987, 1989, 1907, 1906, 1988, 1990, 1908
931, 1907, 1989, 1991, 1909, 1908, 1990, 1992, 1910
932, 1909, 1991, 1993, 1911, 1910, 1992, 1994, 1912
933, 1911, 1993, 1995, 1913, 1912, 1994, 1996, 1914
934, 1913, 1995, 1997, 1915, 1914, 1996, 1998, 1916
935, 1915, 1997, 1999, 1917, 1916, 1998, 2000, 1918
936, 1917, 1999, 2001, 1919, 1918, 2000, 2002, 1920
937, 1919, 2001, 2003, 1921, 1920, 2002, 2004, 1922
938, 1921, 2003, 2005, 1923, 1922, 2004, 2006, 1924
939, 1923, 2005, 2007, 1925, 1924, 2006, 2008, 1926
940, 1925, 2007, 2009, 1927, 1926, 2008, 2010, 1928
941, 1927, 2009, 2011, 1929, 1928, 2010, 2012, 1930
942, 1929, 2011, 2013, 1931, 1930, 2012, 2014, 1932
943, 1931, 2013, 2015, 1933, 1932, 2014, 2016, 1934
944, 1933, 2015, 2017, 1935, 1934, 2016, 2018, 1936
945, 1935, 2017, 2019, 1937, 1936, 2018, 2020, 1938
946, 1937, 2019, 2021, 1939, 1938, 2020, 2022, 1940
947, 1939, 2021, 2023, 1941, 1940, 2022, 2024, 1942
948, 1941, 2023, 2025, 1943, 1942, 2024, 2026, 1944
949, 1943, 2025, 2027, 1945, 1944, 2026, 2028, 1946
950, 1945, 2027, 2029, 1947, 1946, 2028, 2030, 1948
951, 1947, 2029, 2031, 1949, 1948, 2030, 2032, 1950
952, 1949, 2031, 2033, 1951, 1950, 2032, 2034, 1952
953, 1951, 2033, 2035, 1953, 1952, 2034, 2036, 1954
954, 1953, 2035, 2037, 1955, 1954, 2036, 2038, 1956
955, 1955, 2037, 2039, 1957, 1956, 2038, 2040, 1958
956, 1957, 2039, 2041, 1959, 1958, 2040, 2042, 1960
957, 1959, 2041, 2043, 1961, 1960, 2042, 2044, 1962
958, 1961, 2043, 2045, 1963, 1962, 2044, 2046, 1964
959, 1963, 2045, 2047, 1965, 1964, 2046, 2048, 1966
960, 1965, 2047, 2049, 1967, 1966, 2048, 2050, 1968
*ELSET, ELSET=RIGHT
921, 922, 923, 924, 925, 926, 927, 928, 929, 930, 931, 932
933, 934, 935, 936, 937, 938, 939, 940, 941, 942, 943, 944
945, 946, 947, 948, 949, 950, 951, 952, 953, 954, 955, 956
957, 958, 959, 960
*ELSET, ELSET=TOP
40, 80, 120, 160, 200, 240, 280, 320, 360, 400, 440, 480
520, 560, 600, 640, 680, 720, 760, 800, 840, 880, 920, 960
*NSET, NSET=BOTTOM
1, 83, 165, 247, 329, 411, 493, 575, 657, 739, 821, 903
985, 1067, 1149, 1231, 1313, 1395, 1477, 1559, 1641, 1723, 1805, 1887
1969, 2, 84, 166, 248, 330, 412, 494, 576, 658, 740, 822
904, 986, 1068, 1150, 1232, 1314, 1396, 1478, 1560, 1642, 1724, 1806
1888, 1970
*NSET, NSET=PROBE
1985, 1986
*MATERIAL, NAME=MAT
*ELASTIC
1, 0.3
*CONDUCTIVITY
52
*SOLID SECTION, ELSET=PLATE, MATERIAL=MAT
*BOUNDARY
BOTTOM, 11, 11, 100
*STEP
*HEAT TRANSFER, STEADY STATE
*FILM
RIGHT, F4, 0, 750
TOP, F5, 0, 750
*NODE FILE
NT
*END STEP
