** Generated by Mecway 33
*NODE
1,0.0375,0.005,0
2,0.05284746489505,0.01,0.025
3,0.057,0.01,0.025
4,0.0375,0.01,0
5,0.0375,0.005,0.05
6,0.0575806504495,0.01,0.02254032522475
7,0.05430545635174,0.01,0.01680545635174
8,0.0375,0.01,0.05
9,0.05861091270347,0.01,0.02111091270347
10,0.057,0.0075,0.025
11,0.05861091270347,0.0075,0.02111091270347
12,0.05284746489505,0.005,0.025
13,0.08125,0.01,0.0125
14,0.08141745418902,0.01,0.025
15,0.08125,0.015,0
16,0.08125,0.015,0.0125
17,0.057,0.005,0.025
18,0.0575806504495,0.005,0.02254032522475
19,0.05430545635174,0.005,0.01680545635174
20,0.05861091270347,0.005,0.02111091270347
21,0.0625,0.01,0.01534746489505
22,0.0375,0.005,0.025
23,0.0625,0.01,0.0195
24,0.0625,0.01,0.03465253510495
25,0.0625,0.01,0.0305
26,0.08141745418902,0.015,0.025
27,0.0625,0.0075,0.0195
28,0.0375,0.01,0.025
29,0.0625,0.005,0.01534746489505
30,0.0625,0.005,0.0195
31,0.0625,0.0075,0.0305
32,0.06638908729653,0.0075,0.02111091270347
33,0.0625,0.005,0.01117444782879
34,0.0625,0.005,0.0305
35,0.0625,0.0075,0
36,0.0625,0.0075,0.01117444909293
37,0.06004032522475,0.01,0.0299193495505
38,0.0625,0.01,0.005597464895051
39,0.0625,0.01,0.01117444782879
40,0.06004032522475,0.005,0.0299193495505
41,0.0625,0.005,0
42,0.0875,0.0075,0.0125
43,0.05430545635174,0.01,0.03319454364826
44,0.0875,0.0075,0.025
45,0.0875,0.005,0.0375
46,0.0625,0.01,0
47,0.0875,0.01,0.00625
48,0.05861091270347,0.01,0.02888908729653
49,0.0875,0.01,0.0125
50,0.0875,0.005,0.04375
51,0.0875,0.01,0.01875
52,0.0875,0.01,0.00625
53,0.0875,0.005,0
54,0.0875,0.01,0.0125
55,0.0875,0.005,0.025
56,0.0875,0.01,0.01875
57,0.0875,0.0125,0
58,0.0875,0.01,0
59,0.06638908729653,0.01,0.02111091270347
60,0.0875,0.01,0.025
61,0.07069454364826,0.01,0.03319454364826
62,0.06638908729653,0.01,0.02888908729653
63,0.0674193495505,0.01,0.02745967477525
64,0.06336824088834,0,0.02992403876506
65,0.05757596123494,0,0.02586824088833
66,0.0625,0.005,0.03465253510495
67,0.06495967477525,0.01,0.0200806504495
68,0.05877175316372,0.015,0.03032448828788
69,0.05791138850919,0.015,0.03155321635431
70,0.06782448828788,0.015,0.02872824683628
71,0.06905321635431,0.015,0.02958861149081
72,0.06782448828788,0.02,0.02872824683628
73,0.06905321635431,0.02,0.02958861149081
74,0.05877175316372,0.02,0.03032448828788
75,0.05791138850919,0.02,0.03155321635431
76,0.05717551171212,0.015,0.02127175316372
77,0.05594678364569,0.015,0.02041138850919
78,0.05717551171212,0.02,0.02127175316372
79,0.05594678364569,0.02,0.02041138850919
80,0.06622824683628,0.015,0.01967551171212
81,0.06708861149081,0.015,0.01844678364569
82,0.06622824683628,0.02,0.01967551171212
83,0.06708861149081,0.02,0.01844678364569
84,0.05717551171212,0.005,0.02127175316372
85,0.05594678364569,0.005,0.02041138850919
86,0.06622824683628,0.005,0.01967551171212
87,0.06708861149081,0.005,0.01844678364569
88,0.06622824683628,0,0.01967551171212
89,0.06708861149081,0,0.01844678364569
90,0.05717551171212,0,0.02127175316372
91,0.05594678364569,0,0.02041138850919
92,0.05877175316372,0.005,0.03032448828788
93,0.05791138850919,0.005,0.03155321635431
94,0.05877175316372,0,0.03032448828788
95,0.05791138850919,0,0.03155321635431
96,0.06782448828788,0.005,0.02872824683628
97,0.09375,0.01,0.0125
98,0.1,0.01,0.0125
99,0.06875,0.005,0.03815253510495
100,0.10625,0.01,0.0125
101,0.06875,0.005,0.05
102,0.1125,0.01,0.0125
103,0.06875,0.01,0.03815253510495
104,0.06875,0.01,0.05
105,0.11875,0.01,0.0125
106,0.07565253510495,0.005,0.03125
107,0.075,0.005,0.0375
108,0.075,0.005,0.04375
109,0.075,0.005,0.05
110,0.125,0.01,0.0125
111,0.09375,0.015,0.0125
112,0.075,0.0075,0.0375
113,0.075,0.0075,0.05
114,0.1,0.015,0.0125
115,0.07565253510495,0.01,0.03125
116,0.075,0.01,0.0375
117,0.075,0.01,0.04375
118,0.075,0.01,0.05
119,0.10625,0.015,0.0125
120,0.08125,0.005,0.0375
121,0.0625,0.0075,0.03882555090707
122,0.08125,0.005,0.05
123,0.0625,0.0075,0.05
124,0.0575806504495,0.01,0.02745967477525
125,0.1125,0.015,0.0125
126,0.0625,0.01,0.03882555217121
127,0.08125,0.01,0.0375
128,0.0625,0.01,0.04440253510495
129,0.08125,0.01,0.05
130,0.0875,0.0075,0.0375
131,0.0625,0.005,0.05
132,0.0875,0.005,0.03125
133,0.0875,0.0075,0.05
134,0.11875,0.015,0.0125
135,0.0875,0.01,0.03125
136,0.0625,0.01,0.05
137,0.125,0.015,0.0125
138,0.0875,0.01,0.0375
139,0.09375,0.015,0.025
140,0.0875,0.01,0.04375
141,0.1,0.015,0.025
142,0.10625,0.015,0.025
143,0.0875,0.005,0.05
144,0.1125,0.015,0.025
145,0.11875,0.015,0.025
146,0.125,0.015,0.025
147,0.09375,0.01,0.025
148,0.0875,0.01,0.05
149,0.1,0.01,0.025
150,0.10625,0.01,0.025
151,0.1125,0.01,0.025
152,0.11875,0.01,0.025
153,0.125,0.01,0.025
154,0.09375,0.01,0
155,0.1,0.01,0
156,0.10625,0.01,0
157,0.1125,0.01,0
158,0.11875,0.01,0
159,0.125,0.01,0
160,0.09375,0.015,0
161,0.1,0.015,0
162,0.07215253510495,0.01,0.025
163,0.068,0.01,0.025
164,0.0674193495505,0.01,0.02254032522475
165,0.07069454364826,0.01,0.01680545635174
166,0.0375,0.005,0.03125
167,0.0375,0.005,0.0375
168,0.0375,0.005,0.04375
169,0.0375,0.0075,0.025
170,0.0375,0.0075,0.0375
171,0.0375,0.0075,0.05
172,0.0375,0.01,0.03125
173,0.0375,0.01,0.0375
174,0.0375,0.01,0.04375
175,0.04309746489505,0.005,0.025
176,0.04375,0.005,0.0375
177,0.04375,0.005,0.05
178,0.04309746489505,0.01,0.025
179,0.04375,0.01,0.0375
180,0.04375,0.01,0.05
181,0.06638908729653,0.01,0.02111091270347
182,0.04934746489505,0.005,0.03125
183,0.05,0.005,0.0375
184,0.05,0.005,0.04375
185,0.05,0.005,0.05
186,0.10625,0.015,0
187,0.05,0.0075,0.0375
188,0.05,0.0075,0.05
189,0.1125,0.015,0
190,0.04934746489505,0.01,0.03125
191,0.05,0.01,0.0375
192,0.05,0.01,0.04375
193,0.05,0.01,0.05
194,0.11875,0.015,0
195,0.05625,0.005,0.03815253510495
196,0.05625,0.005,0.05
197,0.125,0.015,0
198,0.05625,0.01,0.03815253510495
199,0.05625,0.01,0.05
200,0.05861091270347,0.0075,0.02888908729653
201,0.0625,0.005,0.03882555217121
202,0.0625,0.005,0.04440253510495
203,0.068,0.0075,0.025
204,0.0375,0.005,0.00625
205,0.0375,0.005,0.0125
206,0.0375,0.005,0.01875
207,0.0375,0.0075,0
208,0.0375,0.0075,0.0125
209,0.09375,0.015,0.0375
210,0.0375,0.01,0.00625
211,0.0375,0.01,0.0125
212,0.0375,0.01,0.01875
213,0.04375,0.005,0
214,0.04375,0.005,0.0125
215,0.1,0.015,0.0375
216,0.04375,0.01,0
217,0.04375,0.01,0.0125
218,0.07069454364826,0.01,0.03319454364826
219,0.05,0.005,0
220,0.05,0.005,0.00625
221,0.05,0.005,0.0125
222,0.04934746489505,0.005,0.01875
223,0.04867444782879,0.005,0.025
224,0.05,0.0075,0
225,0.05,0.0075,0.0125
226,0.04867444909293,0.0075,0.025
227,0.05,0.01,0
228,0.05,0.01,0.00625
229,0.05,0.01,0.0125
230,0.04934746489505,0.01,0.01875
231,0.04867444782879,0.01,0.025
232,0.05625,0.005,0
233,0.05625,0.005,0.01184746489505
234,0.06495967477525,0.01,0.0200806504495
235,0.05625,0.01,0
236,0.05625,0.01,0.01184746489505
237,0.05430545635174,0.005,0.03319454364826
238,0.0625,0.005,0.005597464895051
239,0.10625,0.015,0.0375
240,0.1125,0.015,0.0375
241,0.11875,0.015,0.0375
242,0.06638908729653,0.01,0.02888908729653
243,0.0674193495505,0.01,0.02745967477525
244,0.07215253510495,0.005,0.025
245,0.068,0.005,0.025
246,0.0674193495505,0.005,0.02254032522475
247,0.07069454364826,0.005,0.01680545635174
248,0.06875,0.005,0
249,0.06875,0.005,0.01184746489505
250,0.05861091270347,0.005,0.02888908729653
251,0.06875,0.01,0
252,0.06875,0.01,0.01184746489505
253,0.0575806504495,0.005,0.02745967477525
254,0.075,0.005,0
255,0.075,0.005,0.00625
256,0.075,0.005,0.0125
257,0.07565253510495,0.005,0.01875
258,0.07632555217121,0.005,0.025
259,0.075,0.0075,0
260,0.075,0.0075,0.0125
261,0.07632555092178,0.0075,0.02499999986443
262,0.075,0.01,0
263,0.075,0.01,0.00625
264,0.075,0.01,0.0125
265,0.07565253510495,0.01,0.01875
266,0.07632555217121,0.01,0.025
267,0.08125,0.005,0
268,0.08125,0.005,0.0125
269,0.08141745418902,0.005,0.025
270,0.08125,0.01,0
271,0.08125,0.01,0.0125
272,0.08141745418902,0.01,0.025
273,0.0875,0.005,0.00625
274,0.0875,0.005,0.0125
275,0.0875,0.005,0.01875
276,0.0875,0.0075,0
277,0.06638908729653,0.005,0.02111091270347
278,0.07069454364826,0.005,0.03319454364826
279,0.06638908729653,0.005,0.02888908729653
280,0.0674193495505,0.005,0.02745967477525
281,0.125,0.015,0.0375
282,0.09375,0.01,0.0375
283,0.06495967477525,0.005,0.0200806504495
284,0.1,0.01,0.0375
285,0.10625,0.01,0.0375
286,0.1125,0.01,0.0375
287,0.11875,0.01,0.0375
288,0.125,0.01,0.0375
289,0.09375,0.015,0.05
290,0.1,0.015,0.05
291,0.10625,0.015,0.05
292,0.1125,0.015,0.05
293,0.11875,0.015,0.05
294,0.125,0.015,0.05
295,0.09375,0.01,0.05
296,0.1,0.01,0.05
297,0.10625,0.01,0.05
298,0.1125,0.01,0.05
299,0.11875,0.01,0.05
300,0.125,0.01,0.05
301,0.1,0.0125,0.0125
302,0.1125,0.0125,0.0125
303,0.125,0.0125,0.0125
304,0.1,0.015,0.01875
305,0.1125,0.015,0.01875
306,0.125,0.015,0.01875
307,0.1,0.0125,0.025
308,0.1125,0.0125,0.025
309,0.125,0.0125,0.025
310,0.1,0.01,0.01875
311,0.1125,0.01,0.01875
312,0.125,0.01,0.01875
313,0.1,0.0125,0
314,0.1125,0.0125,0
315,0.06495967477525,0.01,0.0299193495505
316,0.125,0.0125,0
317,0.1,0.015,0.00625
318,0.1125,0.015,0.00625
319,0.125,0.015,0.00625
320,0.06495967477525,0.005,0.0299193495505
321,0.1,0.01,0.00625
322,0.1125,0.01,0.00625
323,0.06638908729653,0.0075,0.02888908729653
324,0.125,0.01,0.00625
325,0.1,0.015,0.03125
326,0.1125,0.015,0.03125
327,0.125,0.015,0.03125
328,0.1,0.0125,0.0375
329,0.1125,0.0125,0.0375
330,0.125,0.0125,0.0375
331,0.1,0.01,0.03125
332,0.1125,0.01,0.03125
333,0.125,0.01,0.03125
334,0.1,0.015,0.04375
335,0.1125,0.015,0.04375
336,0.125,0.015,0.04375
337,0.1,0.0125,0.05
338,0.1125,0.0125,0.05
339,0.125,0.0125,0.05
340,0.1,0.01,0.04375
341,0.1125,0.01,0.04375
342,0.125,0.01,0.04375
343,0.06004032522475,0.01,0.0200806504495
344,0.06004032522475,0.005,0.0200806504495
345,0.0375,0.01,0
346,0.05284746489505,0.015,0.025
347,0.057,0.015,0.025
348,0.0375,0.015,0
349,0.0375,0.01,0.05
350,0.0575806504495,0.015,0.02254032522475
351,0.05430545635174,0.015,0.01680545635174
352,0.0375,0.015,0.05
353,0.05861091270347,0.015,0.02111091270347
354,0.057,0.0125,0.025
355,0.05861091270347,0.0125,0.02111091270347
356,0.05284746489505,0.01,0.025
357,0.06905321635431,0.005,0.02958861149081
358,0.06782448828788,0,0.02872824683628
359,0.06495967477525,0.015,0.0299193495505
360,0.06905321635431,0,0.02958861149081
361,0.057,0.01,0.025
362,0.0575806504495,0.01,0.02254032522475
363,0.05430545635174,0.01,0.01680545635174
364,0.05861091270347,0.01,0.02111091270347
365,0.0625,0.015,0.01534746489505
366,0.0375,0.01,0.025
367,0.0625,0.015,0.0195
368,0.0625,0.015,0.03465253510495
369,0.0625,0.015,0.0305
370,0.06388918542134,0.015,0.0328784620241
371,0.0625,0.0125,0.0195
372,0.0375,0.015,0.025
373,0.0625,0.01,0.01534746489505
374,0.0625,0.01,0.0195
375,0.0625,0.0125,0.0305
376,0.06638908729653,0.0125,0.02111091270347
377,0.0625,0.01,0.01117444782879
378,0.0625,0.01,0.0305
379,0.0625,0.0125,0
380,0.0625,0.0125,0.01117444909293
381,0.06004032522475,0.015,0.0299193495505
382,0.0625,0.015,0.005597464895051
383,0.0625,0.015,0.01117444782879
384,0.06004032522475,0.01,0.0299193495505
385,0.0625,0.01,0
386,0.0875,0.0125,0.0125
387,0.05430545635174,0.015,0.03319454364826
388,0.0875,0.0125,0.025
389,0.0875,0.01,0.0375
390,0.0625,0.015,0
391,0.0875,0.015,0.00625
392,0.05861091270347,0.015,0.02888908729653
393,0.0875,0.015,0.0125
394,0.0875,0.01,0.04375
395,0.0875,0.015,0.01875
396,0.06905321635431,0.0175,0.02958861149081
397,0.0875,0.01,0
398,0.06388918542134,0.02,0.0328784620241
399,0.0875,0.01,0.025
400,0.06495967477525,0.01,0.0299193495505
401,0.05791138850919,0.0175,0.03155321635431
402,0.0875,0.015,0
403,0.0546215379759,0.015,0.02638918542134
404,0.0875,0.015,0.025
405,0.06638908729653,0.0125,0.02888908729653
406,0.0546215379759,0.02,0.02638918542134
407,0.05594678364569,0.0175,0.02041138850919
408,0.0703784620241,0.015,0.02361081457866
409,0.06708861149081,0.0175,0.01844678364569
410,0.0625,0.01,0.03465253510495
411,0.0703784620241,0.02,0.02361081457866
412,0.06111081457867,0.015,0.0171215379759
413,0.06111081457867,0.02,0.0171215379759
414,0.06111081457867,0.005,0.0171215379759
415,0.06708861149081,0.0025,0.01844678364569
416,0.06111081457867,0,0.0171215379759
417,0.05594678364569,0.0025,0.02041138850919
418,0.0546215379759,0.005,0.02638918542134
419,0.0546215379759,0,0.02638918542134
420,0.05791138850919,0.0025,0.03155321635431
421,0.06388918542134,0.005,0.0328784620241
422,0.06388918542134,0,0.0328784620241
423,0.06905321635431,0.0025,0.02958861149081
424,0.0703784620241,0.005,0.02361081457866
425,0.0703784620241,0,0.02361081457866
426,0.06004032522475,0.015,0.0200806504495
427,0.06004032522475,0.01,0.0200806504495
428,0.05840423977856,0.005,0.02213211781824
429,0.06536788218176,0.005,0.02090423977856
430,0.06659576022145,0.005,0.02786788218176
431,0.05963211781824,0.005,0.02909576022145
432,0.06163175911167,0.005,0.02007596123494
433,0.06742403876506,0.005,0.02413175911167
434,0.06336824088834,0.005,0.02992403876506
435,0.05757596123494,0.005,0.02586824088833
436,0.05840423977856,0.0075,0.02213211781824
437,0.05840423977856,0.01,0.02213211781824
438,0.05840423977856,0.0125,0.02213211781824
439,0.05840423977856,0.015,0.02213211781824
440,0.05963211781824,0.0075,0.02909576022145
441,0.05963211781824,0.01,0.02909576022145
442,0.05963211781824,0.0125,0.02909576022145
443,0.06875,0.01,0.03815253510495
444,0.05963211781824,0.015,0.02909576022145
445,0.06875,0.01,0.05
446,0.06659576022145,0.0075,0.02786788218176
447,0.06875,0.015,0.03815253510495
448,0.06875,0.015,0.05
449,0.06659576022145,0.01,0.02786788218176
450,0.07565253510495,0.01,0.03125
451,0.075,0.01,0.0375
452,0.075,0.01,0.04375
453,0.075,0.01,0.05
454,0.06659576022145,0.0125,0.02786788218176
455,0.06659576022145,0.015,0.02786788218176
456,0.075,0.0125,0.0375
457,0.075,0.0125,0.05
458,0.06536788218176,0.0075,0.02090423977856
459,0.07565253510495,0.015,0.03125
460,0.075,0.015,0.0375
461,0.075,0.015,0.04375
462,0.075,0.015,0.05
463,0.06536788218176,0.01,0.02090423977856
464,0.08125,0.01,0.0375
465,0.0625,0.0125,0.03882555090707
466,0.08125,0.01,0.05
467,0.0625,0.0125,0.05
468,0.0575806504495,0.015,0.02745967477525
469,0.06536788218176,0.0125,0.02090423977856
470,0.0625,0.015,0.03882555217121
471,0.08125,0.015,0.0375
472,0.0625,0.015,0.04440253510495
473,0.08125,0.015,0.05
474,0.0875,0.0125,0.0375
475,0.0625,0.01,0.05
476,0.0875,0.01,0.03125
477,0.0875,0.0125,0.05
478,0.06536788218176,0.015,0.02090423977856
479,0.0875,0.015,0.03125
480,0.0625,0.015,0.05
481,0.05757596123494,0.01,0.02586824088833
482,0.0875,0.015,0.0375
483,0.05757596123494,0.015,0.02586824088833
484,0.0875,0.015,0.04375
485,0.06336824088834,0.01,0.02992403876506
486,0.06336824088834,0.015,0.02992403876506
487,0.0875,0.01,0.05
488,0.06742403876506,0.01,0.02413175911167
489,0.06742403876506,0.015,0.02413175911167
490,0.06163175911167,0.01,0.02007596123494
491,0.06163175911167,0.015,0.02007596123494
492,0.0875,0.015,0.05
493,0.05840423977856,0.0175,0.02213211781824
494,0.05840423977856,0.02,0.02213211781824
495,0.05963211781824,0.0175,0.02909576022145
496,0.05963211781824,0.02,0.02909576022145
497,0.06659576022145,0.0175,0.02786788218176
498,0.06659576022145,0.02,0.02786788218176
499,0.06536788218176,0.0175,0.02090423977856
500,0.06536788218176,0.02,0.02090423977856
501,0.05757596123494,0.02,0.02586824088833
502,0.06336824088834,0.02,0.02992403876506
503,0.06742403876506,0.02,0.02413175911167
504,0.06163175911167,0.02,0.02007596123494
505,0.05840423977856,0.0025,0.02213211781824
506,0.07215253510495,0.015,0.025
507,0.068,0.015,0.025
508,0.0674193495505,0.015,0.02254032522475
509,0.07069454364826,0.015,0.01680545635174
510,0.0375,0.01,0.03125
511,0.0375,0.01,0.0375
512,0.0375,0.01,0.04375
513,0.0375,0.0125,0.025
514,0.0375,0.0125,0.0375
515,0.0375,0.0125,0.05
516,0.0375,0.015,0.03125
517,0.0375,0.015,0.0375
518,0.0375,0.015,0.04375
519,0.04309746489505,0.01,0.025
520,0.04375,0.01,0.0375
521,0.04375,0.01,0.05
522,0.04309746489505,0.015,0.025
523,0.04375,0.015,0.0375
524,0.04375,0.015,0.05
525,0.06638908729653,0.015,0.02111091270347
526,0.04934746489505,0.01,0.03125
527,0.05,0.01,0.0375
528,0.05,0.01,0.04375
529,0.05,0.01,0.05
530,0.05840423977856,0,0.02213211781824
531,0.05,0.0125,0.0375
532,0.05,0.0125,0.05
533,0.06536788218176,0.0025,0.02090423977856
534,0.04934746489505,0.015,0.03125
535,0.05,0.015,0.0375
536,0.05,0.015,0.04375
537,0.05,0.015,0.05
538,0.06536788218176,0,0.02090423977856
539,0.05625,0.01,0.03815253510495
540,0.05625,0.01,0.05
541,0.06659576022145,0.0025,0.02786788218176
542,0.05625,0.015,0.03815253510495
543,0.05625,0.015,0.05
544,0.05861091270347,0.0125,0.02888908729653
545,0.0625,0.01,0.03882555217121
546,0.0625,0.01,0.04440253510495
547,0.068,0.0125,0.025
548,0.0375,0.01,0.00625
549,0.0375,0.01,0.0125
550,0.0375,0.01,0.01875
551,0.0375,0.0125,0
552,0.0375,0.0125,0.0125
553,0.06659576022145,0,0.02786788218176
554,0.0375,0.015,0.00625
555,0.0375,0.015,0.0125
556,0.0375,0.015,0.01875
557,0.04375,0.01,0
558,0.04375,0.01,0.0125
559,0.05963211781824,0.0025,0.02909576022145
560,0.04375,0.015,0
561,0.04375,0.015,0.0125
562,0.07069454364826,0.015,0.03319454364826
563,0.05,0.01,0
564,0.05,0.01,0.00625
565,0.05,0.01,0.0125
566,0.04934746489505,0.01,0.01875
567,0.04867444782879,0.01,0.025
568,0.05,0.0125,0
569,0.05,0.0125,0.0125
570,0.04867444909293,0.0125,0.025
571,0.05,0.015,0
572,0.05,0.015,0.00625
573,0.05,0.015,0.0125
574,0.04934746489505,0.015,0.01875
575,0.04867444782879,0.015,0.025
576,0.05625,0.01,0
577,0.05625,0.01,0.01184746489505
578,0.06495967477525,0.015,0.0200806504495
579,0.05625,0.015,0
580,0.05625,0.015,0.01184746489505
581,0.05430545635174,0.01,0.03319454364826
582,0.0625,0.01,0.005597464895051
583,0.05963211781824,0,0.02909576022145
584,0.06163175911167,0,0.02007596123494
585,0.06742403876506,0,0.02413175911167
586,0.06638908729653,0.015,0.02888908729653
587,0.0674193495505,0.015,0.02745967477525
588,0.07215253510495,0.01,0.025
589,0.068,0.01,0.025
590,0.0674193495505,0.01,0.02254032522475
591,0.07069454364826,0.01,0.01680545635174
592,0.06875,0.01,0
593,0.06875,0.01,0.01184746489505
594,0.05861091270347,0.01,0.02888908729653
595,0.06875,0.015,0
596,0.06875,0.015,0.01184746489505
597,0.0575806504495,0.01,0.02745967477525
598,0.075,0.01,0
599,0.075,0.01,0.00625
600,0.075,0.01,0.0125
601,0.07565253510495,0.01,0.01875
602,0.07632555217121,0.01,0.025
603,0.075,0.0125,0
604,0.075,0.0125,0.0125
605,0.07632555092178,0.0125,0.02499999986443
606,0.075,0.015,0
607,0.075,0.015,0.00625
608,0.075,0.015,0.0125
609,0.07565253510495,0.015,0.01875
610,0.07632555217121,0.015,0.025
611,0.08125,0.01,0
612,0.03125,0.01,0.025
613,0.025,0.01,0.025
614,0.01875,0.01,0.025
615,0.0125,0.01,0.025
616,0.00625,0.01,0.025
617,0,0.01,0.025
618,0.03125,0.005,0.025
619,0.025,0.005,0.025
620,0.01875,0.005,0.025
621,0.0125,0.005,0.025
622,0.00625,0.005,0.025
623,0,0.005,0.025
624,0.03125,0.005,0.0375
625,0.025,0.005,0.0375
626,0.01875,0.005,0.0375
627,0.0125,0.005,0.0375
628,0.00625,0.005,0.0375
629,0,0.005,0.0375
630,0.03125,0.01,0.0375
631,0.025,0.01,0.0375
632,0.01875,0.01,0.0375
633,0.0125,0.01,0.0375
634,0.00625,0.01,0.0375
635,0,0.01,0.0375
636,0.03125,0.01,0.0125
637,0.025,0.01,0.0125
638,0.01875,0.01,0.0125
639,0.0125,0.01,0.0125
640,0.00625,0.01,0.0125
641,0,0.01,0.0125
642,0.03125,0.005,0.0125
643,0.025,0.005,0.0125
644,0.01875,0.005,0.0125
645,0.0125,0.005,0.0125
646,0.00625,0.005,0.0125
647,0,0.005,0.0125
648,0.03125,0.005,0.05
649,0.025,0.005,0.05
650,0.01875,0.005,0.05
651,0.0125,0.005,0.05
652,0.00625,0.005,0.05
653,0,0.005,0.05
654,0.03125,0.01,0.05
655,0.025,0.01,0.05
656,0.01875,0.01,0.05
657,0.0125,0.01,0.05
658,0.00625,0.01,0.05
659,0,0.01,0.05
660,0.03125,0.01,0
661,0.025,0.01,0
662,0.01875,0.01,0
663,0.0125,0.01,0
664,0.00625,0.01,0
665,0,0.01,0
666,0.03125,0.005,0
667,0.025,0.005,0
668,0.01875,0.005,0
669,0.0125,0.005,0
670,0.00625,0.005,0
671,0,0.005,0
672,0.025,0.0075,0.025
673,0.0125,0.0075,0.025
674,0,0.0075,0.025
675,0.025,0.005,0.03125
676,0.0125,0.005,0.03125
677,0,0.005,0.03125
678,0.025,0.0075,0.0375
679,0.0125,0.0075,0.0375
680,0,0.0075,0.0375
681,0.025,0.01,0.03125
682,0.0125,0.01,0.03125
683,0,0.01,0.03125
684,0.025,0.0075,0.0125
685,0.0125,0.0075,0.0125
686,0,0.0075,0.0125
687,0.025,0.005,0.01875
688,0.0125,0.005,0.01875
689,0,0.005,0.01875
690,0.025,0.01,0.01875
691,0.0125,0.01,0.01875
692,0,0.01,0.01875
693,0.025,0.005,0.04375
694,0.0125,0.005,0.04375
695,0,0.005,0.04375
696,0.025,0.0075,0.05
697,0.0125,0.0075,0.05
698,0,0.0075,0.05
699,0.025,0.01,0.04375
700,0.0125,0.01,0.04375
701,0,0.01,0.04375
702,0.025,0.0075,0
703,0.0125,0.0075,0
704,0,0.0075,0
705,0.025,0.005,0.00625
706,0.0125,0.005,0.00625
707,0,0.005,0.00625
708,0.025,0.01,0.00625
709,0.0125,0.01,0.00625
710,0,0.01,0.00625
711,0.05840423977856,0.009875,0.02213211781824
712,0.05840423977856,0.00975,0.02213211781824
713,0.05963211781824,0.009875,0.02909576022145
714,0.05963211781824,0.00975,0.02909576022145
715,0.06659576022145,0.009875,0.02786788218176
716,0.06659576022145,0.00975,0.02786788218176
717,0.06536788218176,0.009875,0.02090423977856
718,0.06536788218176,0.00975,0.02090423977856
719,0.05757596123494,0.00975,0.02586824088833
720,0.06336824088834,0.00975,0.02992403876506
721,0.06742403876506,0.00975,0.02413175911167
722,0.06163175911167,0.00975,0.02007596123494
723,0,0,0
*ELEMENT,TYPE=C3D20
1,221,33,39,229,20,30,23,9,233,36,236,225,344,27,343,
11,19,29,21,7
2,478,439,494,500,81,77,79,83,491,493,504,499,412,407,413,
409,80,76,78,82
3,33,256,264,39,30,277,181,23,249,260,252,36,283,32,234,
27,29,247,165,21
4,256,274,49,264,258,55,60,266,268,42,271,260,269,44,272,
261,257,275,51,265
5,428,429,538,530,85,87,89,91,432,533,584,505,414,415,416,
417,84,86,88,90
6,431,428,530,583,93,85,91,95,435,505,65,559,418,417,419,
420,92,84,90,94
7,527,535,470,545,594,392,369,378,531,542,465,539,544,381,375,
384,581,387,368,410
8,54,393,404,399,98,114,141,149,386,395,388,56,301,304,307,
310,97,111,139,147
9,201,107,116,126,131,109,118,136,99,112,103,121,101,113,104,
123,202,108,117,128
10,183,201,126,191,185,131,136,193,195,121,198,187,196,123,199,
188,184,202,128,192
11,107,45,138,116,109,143,148,118,120,130,127,112,122,133,129,
113,108,50,140,117
12,98,114,141,149,102,125,144,151,301,304,307,310,302,305,308,
311,100,119,142,150
13,266,258,107,116,163,245,279,242,261,106,112,115,203,280,323,
243,162,244,278,218
14,221,229,231,223,20,9,3,17,225,230,226,222,11,6,10,
18,19,7,2,12
15,102,125,144,151,110,137,146,153,302,305,308,311,303,306,309,
312,105,134,145,152
16,397,402,393,54,155,161,114,98,57,391,386,52,313,317,301,
321,154,160,111,97
17,22,223,231,28,167,183,191,173,175,226,178,169,176,187,179,
170,166,182,190,172
18,167,183,191,173,5,185,193,8,176,187,179,170,177,188,180,
171,168,184,192,174
19,264,256,258,266,181,277,245,163,260,257,261,265,32,246,203,
164,165,247,244,162
20,1,219,227,4,205,221,229,211,213,224,216,207,214,225,217,
208,204,220,228,210
21,205,221,229,211,22,223,231,28,214,225,217,208,175,226,178,
169,206,222,230,212
22,219,41,46,227,221,33,39,229,232,35,235,224,233,36,236,
225,220,238,38,228
23,41,254,262,46,33,256,264,39,248,259,251,35,249,260,252,
36,238,255,263,38
24,201,126,116,107,34,25,242,279,121,103,112,99,31,315,323,
320,66,24,218,278
25,254,53,58,262,256,274,49,264,267,276,270,259,268,42,271,
260,255,273,47,263
26,155,161,114,98,157,189,125,102,313,317,301,321,314,318,302,
322,156,186,119,100
27,157,189,125,102,159,197,137,110,314,318,302,322,316,319,303,
324,158,194,134,105
28,399,404,482,389,149,141,215,284,388,479,474,476,307,325,328,
331,147,139,209,282
29,149,141,215,284,151,144,240,286,307,325,328,331,308,326,329,
332,150,142,239,285
30,151,144,240,286,153,146,281,288,308,326,329,332,309,327,330,
333,152,145,241,287
31,389,482,492,487,284,215,290,296,474,484,477,394,328,334,337,
340,282,209,289,295
32,183,191,126,201,250,48,25,34,187,198,121,195,200,37,31,
40,237,43,24,66
33,223,231,191,183,17,3,48,250,226,190,187,182,10,124,200,
253,12,2,43,237
34,284,215,290,296,286,240,292,298,328,334,337,340,329,335,338,
341,285,239,291,297
35,258,55,60,266,107,45,138,116,269,44,272,261,120,130,127,
112,106,132,135,115
36,286,240,292,298,288,281,294,300,329,335,338,341,330,336,339,
342,287,241,293,299
37,565,377,383,573,364,374,367,353,577,380,580,569,427,371,426,
355,363,373,365,351
38,567,575,535,527,361,347,392,594,570,534,531,526,354,468,544,
597,356,346,387,581
39,377,600,608,383,374,59,525,367,593,604,596,380,67,376,578,
371,373,591,509,365
40,600,54,393,608,602,399,404,610,13,386,16,604,14,388,26,
605,601,56,395,609
41,430,431,583,553,357,93,95,360,434,559,64,541,421,420,422,
423,96,92,94,358
42,602,399,404,610,451,389,482,460,14,388,26,605,464,474,471,
456,450,476,479,459
43,429,430,553,538,87,357,360,89,433,541,585,533,424,423,425,
415,86,96,358,88
44,437,441,449,463,439,444,455,478,481,485,488,490,483,486,489,
491,438,442,454,469
45,545,451,460,470,475,453,462,480,443,456,447,465,445,457,448,
467,546,452,461,472
46,527,545,470,535,529,475,480,537,539,465,542,531,540,467,543,
532,528,546,472,536
47,451,389,482,460,453,487,492,462,464,474,471,456,466,477,473,
457,452,394,484,461
48,428,431,430,429,712,714,716,718,435,434,433,432,719,720,721,
722,436,440,446,458
49,610,602,451,460,507,589,62,586,605,450,456,459,547,63,405,
587,506,588,61,562
50,565,573,575,567,364,353,347,361,569,574,570,566,355,350,354,
362,363,351,346,356
51,439,444,455,478,494,496,498,500,483,486,489,491,501,502,503,
504,493,495,497,499
52,428,429,430,431,530,538,553,583,432,433,434,435,584,585,64,
65,505,533,541,559
53,366,567,575,372,511,527,535,517,519,570,522,513,520,531,523,
514,510,526,534,516
54,511,527,535,517,349,529,537,352,520,531,523,514,521,532,524,
515,512,528,536,518
55,608,600,602,610,525,59,589,507,604,601,605,609,376,590,547,
508,509,591,588,506
56,345,563,571,348,549,565,573,555,557,568,560,551,558,569,561,
552,548,564,572,554
57,549,565,573,555,366,567,575,372,558,569,561,552,519,570,522,
513,550,566,574,556
58,563,385,390,571,565,377,383,573,576,379,579,568,577,380,580,
569,564,582,382,572
59,385,598,606,390,377,600,608,383,592,603,595,379,593,604,596,
380,582,599,607,382
60,545,470,460,451,378,369,586,62,465,447,456,443,375,359,405,
400,410,368,562,61
61,598,397,402,606,600,54,393,608,611,57,15,603,13,386,16,
604,599,52,391,607
62,444,455,498,496,69,71,73,75,486,497,502,495,370,396,398,
401,68,70,72,74
63,439,444,496,494,77,69,75,79,483,495,501,493,403,401,406,
407,76,68,74,78
64,455,478,500,498,71,81,83,73,489,499,503,497,408,409,411,
396,70,80,82,72
65,28,22,167,173,613,619,625,631,169,166,170,172,672,675,678,
681,612,618,624,630
66,613,619,625,631,615,621,627,633,672,675,678,681,673,676,679,
682,614,620,626,632
67,615,621,627,633,617,623,629,635,673,676,679,682,674,677,680,
683,616,622,628,634
68,211,205,22,28,637,643,619,613,208,206,169,212,684,687,672,
690,636,642,618,612
69,637,643,619,613,639,645,621,615,684,687,672,690,685,688,673,
691,638,644,620,614
70,639,645,621,615,641,647,623,617,685,688,673,691,686,689,674,
692,640,646,622,616
71,173,167,5,8,631,625,649,655,170,168,171,174,678,693,696,
699,630,624,648,654
72,631,625,649,655,633,627,651,657,678,693,696,699,679,694,697,
700,632,626,650,656
73,633,627,651,657,635,629,653,659,679,694,697,700,680,695,698,
701,634,628,652,658
74,4,1,205,211,661,667,643,637,207,204,208,210,702,705,684,
708,660,666,642,636
75,661,667,643,637,663,669,645,639,702,705,684,708,703,706,685,
709,662,668,644,638
76,663,669,645,639,665,671,647,641,703,706,685,709,704,707,686,
710,664,670,646,640
77,437,463,449,441,712,718,716,714,490,488,485,481,722,721,720,
719,711,717,715,713
*ELSET,ELSET=DEFAULT
1
2
3
4
5
6
7
8
9
10
11
12
13
14
15
16
17
18
19
20
21
22
23
24
25
26
27
28
29
30
31
32
33
34
35
36
37
38
39
40
41
42
43
44
45
46
47
48
49
50
51
52
53
54
55
56
57
58
59
60
61
62
63
64
65
66
67
68
69
70
71
72
73
74
75
76
77
*SURFACE,NAME=PRETENSIONSECTION
77,S1
*SURFACE,NAME=CONTACT_FACES
22,S5
20,S5
1,S5
23,S5
21,S5
14,S4
3,S5
25,S5
17,S5
33,S4
19,S6
4,S5
18,S5
32,S4
13,S6
35,S5
10,S5
24,S4
11,S5
9,S5
67,S6
66,S6
70,S6
73,S6
65,S6
69,S6
72,S6
76,S6
68,S6
71,S6
75,S6
74,S6
*SURFACE,NAME=CONTACT_FACES(2)
45,S3
60,S6
47,S3
46,S3
7,S6
49,S4
42,S3
54,S3
38,S6
55,S4
40,S3
53,S3
50,S6
39,S3
61,S3
57,S3
37,S3
59,S3
56,S3
58,S3
12,S6
8,S6
26,S6
15,S6
29,S6
16,S6
28,S6
27,S6
30,S6
34,S6
31,S6
36,S6
*SURFACE,NAME=CONTACT_FACES(4)
55,S6
40,S5
39,S5
49,S6
61,S5
42,S5
59,S5
37,S5
60,S4
47,S5
58,S5
50,S4
45,S5
7,S4
56,S5
57,S5
38,S4
46,S5
53,S5
54,S5
*SURFACE,NAME=CONTACT_FACES(3)
62,S3
64,S3
63,S3
2,S3
*SURFACE,NAME=BONDED_CONTACT_FACES(2)
41,S3
6,S3
43,S3
5,S3
*SURFACE,NAME=BONDED_CONTACT_FACES
9,S3
24,S6
11,S3
10,S3
32,S6
13,S4
35,S3
18,S3
33,S6
19,S4
4,S3
17,S3
14,S6
3,S3
25,S3
21,S3
1,S3
23,S3
20,S3
22,S3
*MATERIAL,NAME=MATERIAL
*ELASTIC,TYPE=ISOTROPIC
200000000000,0.3
*SOLID SECTION,ELSET=DEFAULT,MATERIAL=MATERIAL
*BOUNDARY
617,1,,0
617,2,,0
617,3,,0
623,1,,0
623,2,,0
623,3,,0
629,1,,0
629,2,,0
629,3,,0
635,1,,0
635,2,,0
635,3,,0
641,1,,0
641,2,,0
641,3,,0
647,1,,0
647,2,,0
647,3,,0
653,1,,0
653,2,,0
653,3,,0
659,1,,0
659,2,,0
659,3,,0
665,1,,0
665,2,,0
665,3,,0
671,1,,0
671,2,,0
671,3,,0
674,1,,0
674,2,,0
674,3,,0
677,1,,0
677,2,,0
677,3,,0
680,1,,0
680,2,,0
680,3,,0
683,1,,0
683,2,,0
683,3,,0
686,1,,0
686,2,,0
686,3,,0
689,1,,0
689,2,,0
689,3,,0
692,1,,0
692,2,,0
692,3,,0
695,1,,0
695,2,,0
695,3,,0
698,1,,0
698,2,,0
698,3,,0
701,1,,0
701,2,,0
701,3,,0
704,1,,0
704,2,,0
704,3,,0
707,1,,0
707,2,,0
707,3,,0
710,1,,0
710,2,,0
710,3,,0
*PRE-TENSION SECTION,SURFACE=PRETENSIONSECTION,NODE=723
0.000000000000E+000,1.000000000000E+000,0.000000000000E+000
*AMPLITUDE,NAME=Ax_110_1
0,0
1,-416.6666666667
*AMPLITUDE,NAME=Ax_137_2
0,0
1,-416.6666666667
*AMPLITUDE,NAME=Ax_146_3
0,0
1,-416.6666666667
*AMPLITUDE,NAME=Ax_153_4
0,0
1,-416.6666666667
*AMPLITUDE,NAME=Ax_303_5
0,0
1,1666.666666667
*AMPLITUDE,NAME=Ax_306_6
0,0
1,833.3333333333
*AMPLITUDE,NAME=Ax_309_7
0,0
1,1666.666666667
*AMPLITUDE,NAME=Ax_312_8
0,0
1,833.3333333333
*AMPLITUDE,NAME=Ax_281_9
0,0
1,-416.6666666667
*AMPLITUDE,NAME=Ax_288_A
0,0
1,-416.6666666667
*AMPLITUDE,NAME=Ax_327_B
0,0
1,833.3333333333
*AMPLITUDE,NAME=Ax_330_C
0,0
1,1666.666666667
*AMPLITUDE,NAME=Ax_333_D
0,0
1,833.3333333333
*AMPLITUDE,NAME=Ax_294_E
0,0
1,-208.3333333333
*AMPLITUDE,NAME=Ax_300_F
0,0
1,-208.3333333333
*AMPLITUDE,NAME=Ax_336_10
0,0
1,833.3333333333
*AMPLITUDE,NAME=Ax_339_11
0,0
1,833.3333333333
*AMPLITUDE,NAME=Ax_342_12
0,0
1,833.3333333333
*AMPLITUDE,NAME=Ax_159_13
0,0
1,-208.3333333333
*AMPLITUDE,NAME=Ax_197_14
0,0
1,-208.3333333333
*AMPLITUDE,NAME=Ax_316_15
0,0
1,833.3333333333
*AMPLITUDE,NAME=Ax_319_16
0,0
1,833.3333333333
*AMPLITUDE,NAME=Ax_324_17
0,0
1,833.3333333333
*CONTACT PAIR,INTERACTION=SI_18,TYPE=SURFACE TO SURFACE
CONTACT_FACES(2),CONTACT_FACES
*SURFACE INTERACTION,NAME=SI_18
*SURFACE BEHAVIOR,PRESSURE-OVERCLOSURE=LINEAR
2E+14,1
*FRICTION
0.5,2E+14
*CONTACT PAIR,INTERACTION=SI_19,TYPE=SURFACE TO SURFACE
CONTACT_FACES(3),CONTACT_FACES(4)
*SURFACE INTERACTION,NAME=SI_19
*SURFACE BEHAVIOR,PRESSURE-OVERCLOSURE=LINEAR
2E+14,1
*TIE,NAME=T_1A,POSITION TOLERANCE=0
BONDED_CONTACT_FACES(2),BONDED_CONTACT_FACES
*STEP,NLGEOM=YES,INC=100,AMPLITUDE=STEP
*STATIC,DIRECT
0.1,1,0,0
*CLOAD
723,1,30000
*CLOAD,AMPLITUDE=Ax_110_1
110,1,1
*CLOAD,AMPLITUDE=Ax_137_2
137,1,1
*CLOAD,AMPLITUDE=Ax_146_3
146,1,1
*CLOAD,AMPLITUDE=Ax_153_4
153,1,1
*CLOAD,AMPLITUDE=Ax_303_5
303,1,1
*CLOAD,AMPLITUDE=Ax_306_6
306,1,1
*CLOAD,AMPLITUDE=Ax_309_7
309,1,1
*CLOAD,AMPLITUDE=Ax_312_8
312,1,1
*CLOAD,AMPLITUDE=Ax_281_9
281,1,1
*CLOAD,AMPLITUDE=Ax_288_A
288,1,1
*CLOAD,AMPLITUDE=Ax_327_B
327,1,1
*CLOAD,AMPLITUDE=Ax_330_C
330,1,1
*CLOAD,AMPLITUDE=Ax_333_D
333,1,1
*CLOAD,AMPLITUDE=Ax_294_E
294,1,1
*CLOAD,AMPLITUDE=Ax_300_F
300,1,1
*CLOAD,AMPLITUDE=Ax_336_10
336,1,1
*CLOAD,AMPLITUDE=Ax_339_11
339,1,1
*CLOAD,AMPLITUDE=Ax_342_12
342,1,1
*CLOAD,AMPLITUDE=Ax_159_13
159,1,1
*CLOAD,AMPLITUDE=Ax_197_14
197,1,1
*CLOAD,AMPLITUDE=Ax_316_15
316,1,1
*CLOAD,AMPLITUDE=Ax_319_16
319,1,1
*CLOAD,AMPLITUDE=Ax_324_17
324,1,1
*NODE FILE,GLOBAL=YES
U,RF
*EL FILE
S,NOE
*END STEP
