*HEADING
Zwei C3D8 in Serie über *CONTACT PAIR, uz_top = -0.01
*NODE
1, 0, 0, 0
2, 10, 0, 0
3, 10, 10, 0
4, 0, 10, 0
5, 0, 0, 10
6, 10, 0, 10
7, 10, 10, 10
8, 0, 10, 10
9, 0, 0, 10
10, 10, 0, 10
11, 10, 10, 10
12, 0, 10, 10
13, 0, 0, 20
14, 10, 0, 20
15, 10, 10, 20
16, 0, 10, 20
*ELEMENT, TYPE=C3D8, ELSET=E1
1, 1, 2, 3, 4, 5, 6, 7, 8
*ELEMENT, TYPE=C3D8, ELSET=E2
2, 9, 10, 11, 12, 13, 14, 15, 16
*MATERIAL, NAME=STEEL
*ELASTIC
210000, 0.0
*SOLID SECTION, ELSET=E1, MATERIAL=STEEL
*SOLID SECTION, ELSET=E2, MATERIAL=STEEL
*NSET, NSET=BOT
1, 2, 3, 4
*NSET, NSET=TOP
13, 14, 15, 16
*NSET, NSET=ALL
1, 2, 3, 4, 5, 6, 7, 8, 9, 10, 11, 12, 13, 14, 15, 16
*SURFACE, NAME=MASTER, TYPE=ELEMENT
1, S2
*SURFACE, NAME=SLAVE, TYPE=ELEMENT
2, S1
*SURFACE INTERACTION, NAME=INT
*SURFACE BEHAVIOR, PRESSURE-OVERCLOSURE=LINEAR
1e8
*CONTACT PAIR, INTERACTION=INT, TYPE=NODE TO SURFACE
SLAVE, MASTER
*BOUNDARY
ALL, 1, 2
BOT, 3, 3
TOP, 3, 3, -0.01
*STEP
*STATIC
*NODE FILE
U, RF
*EL FILE
S
*END STEP
