*HEADING
C3D8 *STEP, NLGEOM + *PLASTIC, σ=250, ux ≈ 0.03095
*NODE
1, 0, 0, 0
2, 10, 0, 0
3, 10, 10, 0
4, 0, 10, 0
5, 0, 0, 10
6, 10, 0, 10
7, 10, 10, 10
8, 0, 10, 10
*ELEMENT, TYPE=C3D8, ELSET=S
1, 1, 2, 3, 4, 5, 6, 7, 8
*MATERIAL, NAME=STEEL
*ELASTIC
210000, 0.3
*PLASTIC
210, 0.0
420, 0.01
*SOLID SECTION, ELSET=S, MATERIAL=STEEL
*NSET, NSET=FIXED
1, 4, 5, 8
*BOUNDARY
FIXED, 1, 1
1, 2, 3
4, 3, 3
*STEP, NLGEOM
*STATIC
*CLOAD
2, 1, 6250
3, 1, 6250
6, 1, 6250
7, 1, 6250
*NODE FILE
U, RF
*EL FILE
S, PEEQ
*END STEP
