*HEADING
C3D10T B-bar tet, confined εx=0.001 → σxx = λ+2μ
*NODE
1, 0, 0, 0
2, 10, 0, 0
3, 0, 10, 0
4, 0, 0, 10
5, 5, 0, 0
6, 5, 5, 0
7, 0, 5, 0
8, 0, 0, 5
9, 5, 0, 5
10, 0, 5, 5
*ELEMENT, TYPE=C3D10T, ELSET=S
1, 1, 2, 3, 4, 5, 6, 7, 8, 9, 10
*MATERIAL, NAME=STEEL
*ELASTIC
210000, 0.3
*SOLID SECTION, ELSET=S, MATERIAL=STEEL
*BOUNDARY
1, 1, 3
2, 1, 1, 0.01
2, 2, 3
3, 1, 3
4, 1, 3
5, 1, 1, 0.005
5, 2, 3
6, 1, 1, 0.005
6, 2, 3
7, 1, 3
8, 1, 3
9, 1, 1, 0.005
9, 2, 3
10, 1, 3
*STEP
*STATIC
*NODE FILE
U
*EL FILE
S
*END STEP
