*HEADING
C3D8 *STATIC, RIKS — kleine Dehnung, ux = FL/EA = 0.01
*NODE
1, 0, 0, 0
2, 10, 0, 0
3, 10, 10, 0
4, 0, 10, 0
5, 0, 0, 10
6, 10, 0, 10
7, 10, 10, 10
8, 0, 10, 10
*ELEMENT, TYPE=C3D8, ELSET=SOLID
1, 1, 2, 3, 4, 5, 6, 7, 8
*MATERIAL, NAME=STEEL
*ELASTIC
210000, 0.3
*SOLID SECTION, ELSET=SOLID, MATERIAL=STEEL
*NSET, NSET=FIXED
1, 4, 5, 8
*BOUNDARY
FIXED, 1, 1
1, 2, 3
4, 3, 3
*STEP, NLGEOM
*STATIC, RIKS
1.0, 1.0
*CLOAD
2, 1, 5250
3, 1, 5250
6, 1, 5250
7, 1, 5250
*NODE FILE
U, RF
*EL FILE
S
*END STEP
